crystal structure from VMoWS2 with Hexag
   1.00000000000000     
     8.4032994081362329    4.8217570935848419    0.0000000000000000
    -8.3978990547484305    4.8126878635778052    0.0000000000000000
     0.0000000000000000    0.0000000000000000   30.0000000000000000
   V    Mo   W    S 
     3     3     3    18
Direct
  0.6901317087863297  0.0136848168291234 -0.0001263653153911
  0.6804629720468723  0.3150712812213007  0.0011251602199347
  0.3311122274414641 -0.0162575182568700 -0.0011757140993275
 -0.0049420544476099 -0.0055147797401851  0.0000700145051154
  1.0104711707691880  0.3229096477958608 -0.0000666299827124
  0.3092383552760337  0.6324428469157748  0.0005158162934864
 -0.0088098266465194  0.6919165698545949 -0.0000109637777678
  0.3033723680649204  0.3341765321738307 -0.0003727822626788
  0.6933588033207470  0.6985673104565469  0.0003167605659608
  0.1084546295250294  0.2192824571481785  0.9438891165386721
  0.2309896804470798  0.1126958575946796  0.0493096661291613
  0.0968226766872298  0.5533816005095522  0.9506409451033381
  0.2129943783118300  0.4343526089492966  0.0576080240317356
  0.1198892145070327  0.8971023686488342  0.9471495713270620
  0.2189681857855021  0.7803597796769642  0.0507244858586428
  0.4445283190743694  0.2218985794817742  0.9562612714260581
  0.5600064042673631  0.1065751397128644  0.0483988234285730
  0.4464209518013218  0.5565144751886282  0.9498267400193928
  0.5578723171008190  0.4446561679430476  0.0420789430653509
  0.4469614303991079  0.8830914388297054  0.9542461876323923
  0.5539918827317042  0.7839382993865180  0.0481509288339154
  0.7749454158183987  0.2172475541527279  0.9478824345067745
  0.8853199728427372  0.1079675741927873  0.0533569893434988
  0.7741519396751000  0.5574665452003755  0.9498317802330600
  0.8903697288391188  0.4489613574087298  0.0482222963841444
  0.7806872284174177  0.8989618092156924  0.9454117413040255
  0.8904443725943504  0.7867641329871609  0.0567346578875918
 
  0.00000000E+00  0.00000000E+00  0.00000000E+00
  0.00000000E+00  0.00000000E+00  0.00000000E+00
  0.00000000E+00  0.00000000E+00  0.00000000E+00
  0.00000000E+00  0.00000000E+00  0.00000000E+00
  0.00000000E+00  0.00000000E+00  0.00000000E+00
  0.00000000E+00  0.00000000E+00  0.00000000E+00
  0.00000000E+00  0.00000000E+00  0.00000000E+00
  0.00000000E+00  0.00000000E+00  0.00000000E+00
  0.00000000E+00  0.00000000E+00  0.00000000E+00
  0.00000000E+00  0.00000000E+00  0.00000000E+00
  0.00000000E+00  0.00000000E+00  0.00000000E+00
  0.00000000E+00  0.00000000E+00  0.00000000E+00
  0.00000000E+00  0.00000000E+00  0.00000000E+00
  0.00000000E+00  0.00000000E+00  0.00000000E+00
  0.00000000E+00  0.00000000E+00  0.00000000E+00
  0.00000000E+00  0.00000000E+00  0.00000000E+00
  0.00000000E+00  0.00000000E+00  0.00000000E+00
  0.00000000E+00  0.00000000E+00  0.00000000E+00
  0.00000000E+00  0.00000000E+00  0.00000000E+00
  0.00000000E+00  0.00000000E+00  0.00000000E+00
  0.00000000E+00  0.00000000E+00  0.00000000E+00
  0.00000000E+00  0.00000000E+00  0.00000000E+00
  0.00000000E+00  0.00000000E+00  0.00000000E+00
  0.00000000E+00  0.00000000E+00  0.00000000E+00
  0.00000000E+00  0.00000000E+00  0.00000000E+00
  0.00000000E+00  0.00000000E+00  0.00000000E+00
  0.00000000E+00  0.00000000E+00  0.00000000E+00
