crystal structure from VMoWS2 with Hexag
   1.00000000000000     
     8.2746188491890109    4.7811951492477629    0.0000000000000000
    -8.2962710644240474    4.8186491457970302    0.0000000000000000
     0.0000000000000000    0.0000000000000000   30.0000000000000000
   V    Mo   W    S 
     3     3     3    18
Direct
  0.3324615665221745  0.6704182733433799 -0.0000820741806063
  0.6621094113141985  0.6676543453519390  0.0003027513393756
  0.3380025237870558  0.0053203410859158  0.0001903329624689
  0.6882794254986582  0.0193617326163706  0.0001977293983841
  0.9918179028109724  0.3108204177618552 -0.0002025866394801
  0.3234999593556758  0.3195998094886429  0.0002039982540654
 -0.0033149919760034  0.0195689356139586  0.0004291841926642
  0.0069549510837519  0.6688117640587822 -0.0005927300162852
  0.6581719454646211  0.3168291942398339 -0.0002574910687789
  0.1112013156447589  0.2214638508338601  0.9445456860747308
  0.2207984405152822  0.1042320087579295  0.0523833733395172
  0.1151549551346465  0.5542274450104966  0.9498056355036947
  0.2235461305080536  0.4485886612675272  0.0500071290070584
  0.1142805280456667  0.8949348496271214  0.9507142395143322
  0.2279168497882852  0.7816328445440888  0.0504431993342553
  0.4407204558272604  0.2132186458737682  0.9473173301221944
  0.5504611685015213  0.1067662926751234  0.0526285107143441
  0.4453686282049327  0.5594366361987742  0.9508657961554782
  0.5574206766592122  0.4470114290931190  0.0496292027848377
  0.4454092693285922  0.8900574692257170  0.9516859932580474
  0.5537716643826796  0.7763524358874144  0.0489654492352754
  0.7792866696906270  0.2248240813512916  0.9448351660338868
  0.8907565648297094  0.1126205373472490  0.0574671951888357
  0.7724905861993312  0.5553944367935919  0.9503442751401926
  0.8886954616276167  0.4432336631067015  0.0504860971083594
  0.7776565063365490  0.8872917253581601  0.9483081788116835
  0.8852958883511376  0.7785426269649102  0.0493783276314364
 
  0.00000000E+00  0.00000000E+00  0.00000000E+00
  0.00000000E+00  0.00000000E+00  0.00000000E+00
  0.00000000E+00  0.00000000E+00  0.00000000E+00
  0.00000000E+00  0.00000000E+00  0.00000000E+00
  0.00000000E+00  0.00000000E+00  0.00000000E+00
  0.00000000E+00  0.00000000E+00  0.00000000E+00
  0.00000000E+00  0.00000000E+00  0.00000000E+00
  0.00000000E+00  0.00000000E+00  0.00000000E+00
  0.00000000E+00  0.00000000E+00  0.00000000E+00
  0.00000000E+00  0.00000000E+00  0.00000000E+00
  0.00000000E+00  0.00000000E+00  0.00000000E+00
  0.00000000E+00  0.00000000E+00  0.00000000E+00
  0.00000000E+00  0.00000000E+00  0.00000000E+00
  0.00000000E+00  0.00000000E+00  0.00000000E+00
  0.00000000E+00  0.00000000E+00  0.00000000E+00
  0.00000000E+00  0.00000000E+00  0.00000000E+00
  0.00000000E+00  0.00000000E+00  0.00000000E+00
  0.00000000E+00  0.00000000E+00  0.00000000E+00
  0.00000000E+00  0.00000000E+00  0.00000000E+00
  0.00000000E+00  0.00000000E+00  0.00000000E+00
  0.00000000E+00  0.00000000E+00  0.00000000E+00
  0.00000000E+00  0.00000000E+00  0.00000000E+00
  0.00000000E+00  0.00000000E+00  0.00000000E+00
  0.00000000E+00  0.00000000E+00  0.00000000E+00
  0.00000000E+00  0.00000000E+00  0.00000000E+00
  0.00000000E+00  0.00000000E+00  0.00000000E+00
  0.00000000E+00  0.00000000E+00  0.00000000E+00
