crystal structure from VMoWS2 with Hexag
   1.00000000000000     
     8.3440901246284671    4.8176372440323272    0.0000000000000000
    -8.3444226604035929    4.8182152879847262    0.0000000000000000
     0.0000000000000000    0.0000000000000000   30.0000000000000000
   V    Mo   W    S 
     3     3     3    18
Direct
  0.3295640729036053  0.6699646453982163 -0.0003057818388723
  0.6739136109431298  0.6702105703376811 -0.0002760324753719
  0.3294316260865099  0.3258510583328785 -0.0002804337115804
  0.0125901480503681 -0.0125855356834892 -0.0001012606223038
  0.0125455891943397  0.6919237821574273 -0.0001064507785791
  0.3080563434968416 -0.0125540477128841 -0.0001045376369655
  0.9735773147397065  0.3199914261981977  0.0002112280343175
  0.6798817641630251  0.0264155285250257  0.0002122256007710
  0.6797635681517527  0.3199982960793990  0.0002107800122116
  0.1131871498278225  0.2236020420783769  0.9505896449061090
  0.2242018935690360  0.1151831904554262  0.0532032894611453
  0.1131240511224023  0.5561731040569409  0.9506161095835575
  0.2214578205683648  0.4440001127204047  0.0474097199650103
  0.1110654614066057  0.8888748717222767  0.9427610722433037
  0.2242164495115366  0.7756957850880096  0.0531604935929908
  0.4437139019095422  0.2236549235289697  0.9506107917211853
  0.5496244170660178  0.1081026267739571  0.0523318141616025
  0.4443668377976183  0.5554000787580358  0.9532413335803021
  0.5558099771883034  0.4439935522994530  0.0473791006155456
  0.4437367992278228  0.8867120471183432  0.9506407228081306
  0.5558533544228706  0.7784453203011286  0.0473749195687065
  0.7777158102062860  0.2221703730339599  0.9421615121522954
  0.8917675346131942  0.1081257449524452  0.0523420554915891
  0.7762739189080563  0.5561577103468175  0.9506046374003486
  0.8918067513578767  0.4502968164394940  0.0523005517073534
  0.7762506870925879  0.8867056600514447  0.9506092155638094
  0.8847175999117575  0.7757047701196369  0.0532031780933805
 
  0.00000000E+00  0.00000000E+00  0.00000000E+00
  0.00000000E+00  0.00000000E+00  0.00000000E+00
  0.00000000E+00  0.00000000E+00  0.00000000E+00
  0.00000000E+00  0.00000000E+00  0.00000000E+00
  0.00000000E+00  0.00000000E+00  0.00000000E+00
  0.00000000E+00  0.00000000E+00  0.00000000E+00
  0.00000000E+00  0.00000000E+00  0.00000000E+00
  0.00000000E+00  0.00000000E+00  0.00000000E+00
  0.00000000E+00  0.00000000E+00  0.00000000E+00
  0.00000000E+00  0.00000000E+00  0.00000000E+00
  0.00000000E+00  0.00000000E+00  0.00000000E+00
  0.00000000E+00  0.00000000E+00  0.00000000E+00
  0.00000000E+00  0.00000000E+00  0.00000000E+00
  0.00000000E+00  0.00000000E+00  0.00000000E+00
  0.00000000E+00  0.00000000E+00  0.00000000E+00
  0.00000000E+00  0.00000000E+00  0.00000000E+00
  0.00000000E+00  0.00000000E+00  0.00000000E+00
  0.00000000E+00  0.00000000E+00  0.00000000E+00
  0.00000000E+00  0.00000000E+00  0.00000000E+00
  0.00000000E+00  0.00000000E+00  0.00000000E+00
  0.00000000E+00  0.00000000E+00  0.00000000E+00
  0.00000000E+00  0.00000000E+00  0.00000000E+00
  0.00000000E+00  0.00000000E+00  0.00000000E+00
  0.00000000E+00  0.00000000E+00  0.00000000E+00
  0.00000000E+00  0.00000000E+00  0.00000000E+00
  0.00000000E+00  0.00000000E+00  0.00000000E+00
  0.00000000E+00  0.00000000E+00  0.00000000E+00
