crystal structure from VMoWS2 with Hexag
   1.00000000000000     
     8.3669071529017263    4.8424499479702101    0.0000000000000000
    -8.3688914990572769    4.8457904559543401    0.0000000000000000
     0.0000000000000000    0.0000000000000000   30.0000000000000000
   V    Mo   W    S 
     3     3     3    18
Direct
  0.9661018019023396  0.3151426856437412  0.0006740122720078
  0.6480875976679554  0.6297112810554819 -0.0006000566269677
 -0.0240379759873099  0.6421121230016449 -0.0003392060291536
  0.3525170489628366  0.0207789816910905 -0.0000146936935763
  0.6586640422845390  0.3269248771554190 -0.0000063883621487
  0.3467626432386958  0.3131917251581768  0.0002415443888268
  0.0392316394596855  0.0167069448840082 -0.0015981539132693
  0.3500796476024532  0.7062717695771052  0.0017647703090650
  0.6479790785916739  0.0142476704528695 -0.0000473816477365
  0.1145088133116165  0.2291944968601566  0.9500759615450882
  0.2280570338447079  0.1117426359019359  0.0562625273005746
  0.1070940799966045  0.5517379766071339  0.9537381188451358
  0.2205855105375208  0.4469983601468898  0.0405650489968062
  0.1145885629964546  0.8809740204348208  0.9502808256994785
  0.2128028402597695  0.7808825887564200  0.0494276546049095
  0.4500675283053436  0.2238154230669240  0.9431621533464758
  0.5568676911790171  0.1165758119526736  0.0568902499877923
  0.4432282220553745  0.5563904600868188  0.9516927669457746
  0.5567866876988842  0.4448008882653620  0.0545308781188716
  0.4469673785128060  0.8968396088395106  0.9440182940773258
  0.5640740156263787  0.7821590943407927  0.0498088523922191
  0.7794757928431076  0.2240295366819678  0.9458101589135767
  0.8898614407600470  0.1102761325371116  0.0486556718445279
  0.7748501161433377  0.5558788096061856  0.9483162132683962
  0.8902266102752558  0.4424091698950937  0.0511271887717357
  0.7786019198582992  0.8864334155724265  0.9596894912983542
  0.8841846855095862  0.7719879653058164  0.0458733965459032
 
  0.00000000E+00  0.00000000E+00  0.00000000E+00
  0.00000000E+00  0.00000000E+00  0.00000000E+00
  0.00000000E+00  0.00000000E+00  0.00000000E+00
  0.00000000E+00  0.00000000E+00  0.00000000E+00
  0.00000000E+00  0.00000000E+00  0.00000000E+00
  0.00000000E+00  0.00000000E+00  0.00000000E+00
  0.00000000E+00  0.00000000E+00  0.00000000E+00
  0.00000000E+00  0.00000000E+00  0.00000000E+00
  0.00000000E+00  0.00000000E+00  0.00000000E+00
  0.00000000E+00  0.00000000E+00  0.00000000E+00
  0.00000000E+00  0.00000000E+00  0.00000000E+00
  0.00000000E+00  0.00000000E+00  0.00000000E+00
  0.00000000E+00  0.00000000E+00  0.00000000E+00
  0.00000000E+00  0.00000000E+00  0.00000000E+00
  0.00000000E+00  0.00000000E+00  0.00000000E+00
  0.00000000E+00  0.00000000E+00  0.00000000E+00
  0.00000000E+00  0.00000000E+00  0.00000000E+00
  0.00000000E+00  0.00000000E+00  0.00000000E+00
  0.00000000E+00  0.00000000E+00  0.00000000E+00
  0.00000000E+00  0.00000000E+00  0.00000000E+00
  0.00000000E+00  0.00000000E+00  0.00000000E+00
  0.00000000E+00  0.00000000E+00  0.00000000E+00
  0.00000000E+00  0.00000000E+00  0.00000000E+00
  0.00000000E+00  0.00000000E+00  0.00000000E+00
  0.00000000E+00  0.00000000E+00  0.00000000E+00
  0.00000000E+00  0.00000000E+00  0.00000000E+00
  0.00000000E+00  0.00000000E+00  0.00000000E+00
