crystal structure from VMoWS2 with Hexag
   1.00000000000000     
     8.3779085462854948    4.8162732934037917    0.0000000000000000
    -8.3786193578566444    4.8172311882689280    0.0000000000000000
     0.0000000000000000    0.0000000000000000   30.0000000000000000
   V    Mo   W    S 
     3     3     3    18
Direct
  1.0023298642469738  0.3558342864561836 -0.0000766917660052
  0.3134141642793746  0.3528313133629211 -0.0025973519248336
  0.0165136592196359 -0.0173345763053784  0.0017796360655620
  0.6988436266558007  0.3473964318208477  0.0007266539315573
  0.3147578933874032  0.6769782364906766 -0.0009270973834132
  0.0005851627583890  0.6624848010214596  0.0004809841507998
  0.3231915743545703 -0.0279202890578182  0.0003285588665385
  0.6378032456435807  0.0089246748935369 -0.0027520843031670
  0.6932745855356611  0.6492373449469862  0.0018136887439846
  0.1032308059560520  0.2186215500357989  0.9532186147761295
  0.2230561916608898  0.1157618902984903  0.0484206231180782
  0.1076031658225983  0.5498405750521600  0.9452206229575614
  0.2158920217190493  0.4463806545164178  0.0512533993212099
  0.1105098962495804  0.8876490544045598  0.9467917316025569
  0.2188222347283440  0.7760519007949793  0.0568121662670214
  0.4408214898745595  0.2265571315074882  0.9597322260837633
  0.5501838513237787  0.1129113736343025  0.0529369716770950
  0.4509791631955105  0.5622865870734008  0.9520034845452571
  0.5498909066112271  0.4367841546876958  0.0500219249809541
  0.4350182794109833  0.8867935371955644  0.9421785093642568
  0.5599802024424472  0.7752766904429832  0.0439384207457886
  0.7853839633522781  0.2239596985848602  0.9466313416743476
  0.8877518093107816  0.1080330251377900  0.0409135584190023
  0.7853206669840734  0.5516111614539257  0.9446815439701232
  0.8983278658167638  0.4445988708132333  0.0557796221455916
  0.7785991711253651  0.8874947384364036  0.9557829073815469
  0.8961289917713142  0.7791696357781051  0.0549059337886837
 
  0.00000000E+00  0.00000000E+00  0.00000000E+00
  0.00000000E+00  0.00000000E+00  0.00000000E+00
  0.00000000E+00  0.00000000E+00  0.00000000E+00
  0.00000000E+00  0.00000000E+00  0.00000000E+00
  0.00000000E+00  0.00000000E+00  0.00000000E+00
  0.00000000E+00  0.00000000E+00  0.00000000E+00
  0.00000000E+00  0.00000000E+00  0.00000000E+00
  0.00000000E+00  0.00000000E+00  0.00000000E+00
  0.00000000E+00  0.00000000E+00  0.00000000E+00
  0.00000000E+00  0.00000000E+00  0.00000000E+00
  0.00000000E+00  0.00000000E+00  0.00000000E+00
  0.00000000E+00  0.00000000E+00  0.00000000E+00
  0.00000000E+00  0.00000000E+00  0.00000000E+00
  0.00000000E+00  0.00000000E+00  0.00000000E+00
  0.00000000E+00  0.00000000E+00  0.00000000E+00
  0.00000000E+00  0.00000000E+00  0.00000000E+00
  0.00000000E+00  0.00000000E+00  0.00000000E+00
  0.00000000E+00  0.00000000E+00  0.00000000E+00
  0.00000000E+00  0.00000000E+00  0.00000000E+00
  0.00000000E+00  0.00000000E+00  0.00000000E+00
  0.00000000E+00  0.00000000E+00  0.00000000E+00
  0.00000000E+00  0.00000000E+00  0.00000000E+00
  0.00000000E+00  0.00000000E+00  0.00000000E+00
  0.00000000E+00  0.00000000E+00  0.00000000E+00
  0.00000000E+00  0.00000000E+00  0.00000000E+00
  0.00000000E+00  0.00000000E+00  0.00000000E+00
  0.00000000E+00  0.00000000E+00  0.00000000E+00
