crystal structure from VMoWS2 with Hexag
   1.00000000000000     
     8.3357564618870885    4.7930957054993550    0.0000000000000000
    -8.3409924420468435    4.8022448247156344    0.0000000000000000
     0.0000000000000000    0.0000000000000000   30.0000000000000000
   V    Mo   W    S 
     3     3     3    18
Direct
  0.6473855592296216  0.3540366792783156 -0.0027255846160927
 -0.0159506318901391  0.6831086450276954 -0.0016410977166043
  0.3532039836081600  0.6477267900249600  0.0028014857674272
  0.3132827057830857  0.3129403630389474 -0.0000756718944225
 -0.0007726395118751  0.0043431966016921 -0.0002572542244403
  0.6837249492011446  0.6875637284160436 -0.0001161990639799
  1.0146392124631027  0.3129604076033986  0.0015504567498534
  0.3125158320119421  0.0149404318282691 -0.0014482163755011
  0.6887634261503884 -0.0144930167177450  0.0018158981443829
  0.1100884171802262  0.2181741244933038  0.9434452763028985
  0.2169470306620993  0.1092651563252677  0.0561196254506722
  0.1148321605184325  0.5580983050083552  0.9577679915931722
  0.2246102395308667  0.4439931556920301  0.0551678299485191
  0.1067490755944121  0.8845075010575117  0.9450659428154482
  0.2208194528581978  0.7737901324691889  0.0436943309314554
  0.4435622376267931  0.2248067692077310  0.9447820792074861
  0.5583928149468564  0.1160832941691848  0.0429717581257227
  0.4460391638082972  0.5535598688592823  0.9496810746659763
  0.5534181742063364  0.4469040784712645  0.0499988697227388
  0.4426295187689190  0.8846888891140974  0.9572746768622793
  0.5568779281270828  0.7760223016149110  0.0556187317513577
  0.7754860600183440  0.2240919688451661  0.9551303993721398
  0.8904620177475003  0.1097017247185983  0.0573723931316828
  0.7801458218359564  0.5586448132876547  0.9462110050250180
  0.8855446525500176  0.4445718951767257  0.0422964740368844
  0.7819892293803824  0.8903348430339659  0.9436605772813453
  0.8928280610308289  0.7778484068317546  0.0538370462045714
 
  0.00000000E+00  0.00000000E+00  0.00000000E+00
  0.00000000E+00  0.00000000E+00  0.00000000E+00
  0.00000000E+00  0.00000000E+00  0.00000000E+00
  0.00000000E+00  0.00000000E+00  0.00000000E+00
  0.00000000E+00  0.00000000E+00  0.00000000E+00
  0.00000000E+00  0.00000000E+00  0.00000000E+00
  0.00000000E+00  0.00000000E+00  0.00000000E+00
  0.00000000E+00  0.00000000E+00  0.00000000E+00
  0.00000000E+00  0.00000000E+00  0.00000000E+00
  0.00000000E+00  0.00000000E+00  0.00000000E+00
  0.00000000E+00  0.00000000E+00  0.00000000E+00
  0.00000000E+00  0.00000000E+00  0.00000000E+00
  0.00000000E+00  0.00000000E+00  0.00000000E+00
  0.00000000E+00  0.00000000E+00  0.00000000E+00
  0.00000000E+00  0.00000000E+00  0.00000000E+00
  0.00000000E+00  0.00000000E+00  0.00000000E+00
  0.00000000E+00  0.00000000E+00  0.00000000E+00
  0.00000000E+00  0.00000000E+00  0.00000000E+00
  0.00000000E+00  0.00000000E+00  0.00000000E+00
  0.00000000E+00  0.00000000E+00  0.00000000E+00
  0.00000000E+00  0.00000000E+00  0.00000000E+00
  0.00000000E+00  0.00000000E+00  0.00000000E+00
  0.00000000E+00  0.00000000E+00  0.00000000E+00
  0.00000000E+00  0.00000000E+00  0.00000000E+00
  0.00000000E+00  0.00000000E+00  0.00000000E+00
  0.00000000E+00  0.00000000E+00  0.00000000E+00
  0.00000000E+00  0.00000000E+00  0.00000000E+00
