crystal structure from VMoWS2 with Hexag
   1.00000000000000     
     8.3877300773456032    4.8057266085850934    0.0000000000000000
    -8.3976251555924790    4.8227248764504571    0.0000000000000000
     0.0000000000000000    0.0000000000000000   30.0000000000000000
   V    Mo   W    S 
     3     3     3    18
Direct
 -0.0152506258519486 -0.0299906185377830 -0.0008234338665482
  0.6700019199601349  0.0011736766271201  0.0026581541636634
  0.9849426788669645  0.3496830666345685 -0.0016515094458054
  0.6819298763101098  0.6477434307095651  0.0008189129123090
  0.0054242934389414  0.6740700138805460 -0.0000271715655512
  0.3099054291415271 -0.0220460078531223 -0.0003143378657316
  0.3687600234379574  0.3317548827445217  0.0015842974010480
  0.3100675426736301  0.6834037224120477 -0.0012992675643230
  0.6790099876483694  0.3601591896709035 -0.0003689079761917
  0.1120561047413990  0.2222396437263085  0.9595593784304814
  0.2145883438731258  0.1080440638329167  0.0503749734272573
  0.1054332279270018  0.5539952907944011  0.9453063509386735
  0.2213587047599010  0.4435383225328917  0.0444896560317665
  0.1039849044261490  0.8909833263263814  0.9455867122867712
  0.2170840997714848  0.7786084035351268  0.0563370909520642
  0.4526896498203670  0.2190438102459184  0.9477301853446777
  0.5559123206863568  0.1123814636990781  0.0460360862400948
  0.4420311052589885  0.5584533809796310  0.9544932748824595
  0.5662071498211796  0.4445967135538881  0.0580730353717184
  0.4463193635432868  0.8931539954413495  0.9477177628944364
  0.5514897805356551  0.7729792013196300  0.0455437828669574
  0.7783993230273430  0.2204074078767375  0.9499842842647238
  0.8905035983875070  0.1127458928380914  0.0457319438949209
  0.7856706339154368  0.5585552233999241  0.9435799128170159
  0.8924551631034225  0.4447583290626093  0.0532894395619541
  0.7756790691671296  0.8858792639204415  0.9510830059702803
  0.8915607850455523  0.7818993641038785  0.0545062868308751
 
  0.00000000E+00  0.00000000E+00  0.00000000E+00
  0.00000000E+00  0.00000000E+00  0.00000000E+00
  0.00000000E+00  0.00000000E+00  0.00000000E+00
  0.00000000E+00  0.00000000E+00  0.00000000E+00
  0.00000000E+00  0.00000000E+00  0.00000000E+00
  0.00000000E+00  0.00000000E+00  0.00000000E+00
  0.00000000E+00  0.00000000E+00  0.00000000E+00
  0.00000000E+00  0.00000000E+00  0.00000000E+00
  0.00000000E+00  0.00000000E+00  0.00000000E+00
  0.00000000E+00  0.00000000E+00  0.00000000E+00
  0.00000000E+00  0.00000000E+00  0.00000000E+00
  0.00000000E+00  0.00000000E+00  0.00000000E+00
  0.00000000E+00  0.00000000E+00  0.00000000E+00
  0.00000000E+00  0.00000000E+00  0.00000000E+00
  0.00000000E+00  0.00000000E+00  0.00000000E+00
  0.00000000E+00  0.00000000E+00  0.00000000E+00
  0.00000000E+00  0.00000000E+00  0.00000000E+00
  0.00000000E+00  0.00000000E+00  0.00000000E+00
  0.00000000E+00  0.00000000E+00  0.00000000E+00
  0.00000000E+00  0.00000000E+00  0.00000000E+00
  0.00000000E+00  0.00000000E+00  0.00000000E+00
  0.00000000E+00  0.00000000E+00  0.00000000E+00
  0.00000000E+00  0.00000000E+00  0.00000000E+00
  0.00000000E+00  0.00000000E+00  0.00000000E+00
  0.00000000E+00  0.00000000E+00  0.00000000E+00
  0.00000000E+00  0.00000000E+00  0.00000000E+00
  0.00000000E+00  0.00000000E+00  0.00000000E+00
