crystal structure from VMoWS2 with Hexag
   1.00000000000000     
     8.2859677044554267    4.7815793933463642    0.0000000000000000
    -8.3016618273817180    4.8087551654856275    0.0000000000000000
     0.0000000000000000    0.0000000000000000   30.0000000000000000
   V    Mo   W    S 
     3     3     3    18
Direct
  0.6736060666839202  0.6634379218687573 -0.0001634130937572
  0.3293877077005166  0.6663457663694299 -0.0004866852433447
  0.3383284083910968  0.0125493269234370  0.0001665398723657
  0.0009335886728276  0.0197715570395342  0.0002693280015522
  0.3173637216126942  0.3170277579671847 -0.0000865990092265
  0.6903687352244317  0.0178336704231136  0.0000748409882056
  1.0004999096561262  0.3116535190945538 -0.0001924002822171
 -0.0139686804658515  0.6595057859728699  0.0000108091955225
  0.6656703318413510  0.3357826475514661  0.0001431853650815
  0.1111766742819733  0.2213458253970882  0.9435485197098942
  0.2225138418465070  0.1054057800546141  0.0532562834876245
  0.1111807677162395  0.5528329992873658  0.9503017894873789
  0.2229332148355730  0.4467334662188274  0.0512397250044820
  0.1134822077417364  0.8903512659743422  0.9511026662465620
  0.2243301577340917  0.7803594058755597  0.0487319394078620
  0.4419576133950363  0.2160867236027892  0.9478690506976434
  0.5515714459736561  0.1093140352433294  0.0511144071840607
  0.4457444732118145  0.5584497488710798  0.9515106954222404
  0.5542581253535717  0.4477791639908979  0.0501413245305044
  0.4447792988028762  0.8906052863564685  0.9527671570887813
  0.5545399041017052  0.7746953328183608  0.0477163739756317
  0.7823159185722570  0.2271870165799967  0.9463286285901653
  0.8918917983632607  0.1128190258337527  0.0571242851093295
  0.7713341776739188  0.5564488187005818  0.9467998805734271
  0.8905604825831660  0.4405053907091796  0.0512641022432226
  0.7774286372565141  0.8856242108159867  0.9486129016275626
  0.8840259246759608  0.7777630039369925  0.0508345630194307
 
  0.00000000E+00  0.00000000E+00  0.00000000E+00
  0.00000000E+00  0.00000000E+00  0.00000000E+00
  0.00000000E+00  0.00000000E+00  0.00000000E+00
  0.00000000E+00  0.00000000E+00  0.00000000E+00
  0.00000000E+00  0.00000000E+00  0.00000000E+00
  0.00000000E+00  0.00000000E+00  0.00000000E+00
  0.00000000E+00  0.00000000E+00  0.00000000E+00
  0.00000000E+00  0.00000000E+00  0.00000000E+00
  0.00000000E+00  0.00000000E+00  0.00000000E+00
  0.00000000E+00  0.00000000E+00  0.00000000E+00
  0.00000000E+00  0.00000000E+00  0.00000000E+00
  0.00000000E+00  0.00000000E+00  0.00000000E+00
  0.00000000E+00  0.00000000E+00  0.00000000E+00
  0.00000000E+00  0.00000000E+00  0.00000000E+00
  0.00000000E+00  0.00000000E+00  0.00000000E+00
  0.00000000E+00  0.00000000E+00  0.00000000E+00
  0.00000000E+00  0.00000000E+00  0.00000000E+00
  0.00000000E+00  0.00000000E+00  0.00000000E+00
  0.00000000E+00  0.00000000E+00  0.00000000E+00
  0.00000000E+00  0.00000000E+00  0.00000000E+00
  0.00000000E+00  0.00000000E+00  0.00000000E+00
  0.00000000E+00  0.00000000E+00  0.00000000E+00
  0.00000000E+00  0.00000000E+00  0.00000000E+00
  0.00000000E+00  0.00000000E+00  0.00000000E+00
  0.00000000E+00  0.00000000E+00  0.00000000E+00
  0.00000000E+00  0.00000000E+00  0.00000000E+00
  0.00000000E+00  0.00000000E+00  0.00000000E+00
