crystal structure from VMoWS2 with Hexag
   1.00000000000000     
     8.2685514768739914    4.7825724708370574    0.0000000000000000
    -8.2858135810844047    4.8124618853883847    0.0000000000000000
     0.0000000000000000    0.0000000000000000   30.0000000000000000
   V    Mo   W    S 
     3     3     3    18
Direct
  0.6659671625474891  0.6685445352617378 -0.0000298859472524
  0.6671341515730842  0.0034661048538200 -0.0000180272564545
 -0.0053197106531105  0.6653086517666166  0.0003479832973064
  0.6592051147084942  0.3226104640222366  0.0002543058274713
  0.0231204586771584  0.0196416172421576  0.0000875038786510
  0.3225806390277971  0.3102451696538064 -0.0001479136601524
  0.9949736825950186  0.3192411324620463 -0.0001487217462033
  0.3306751468520578  0.0186818684621378  0.0003548764502471
  0.3392595742862467  0.6696868305881216 -0.0004967176789278
  0.1123166089912759  0.2245265355587649  0.9446274960027512
  0.2241484751984071  0.1119749924362655  0.0574519544451986
  0.1059929013686015  0.5559181262583633  0.9500397389577417
  0.2226095487669010  0.4435863635446346  0.0508302896216715
  0.1109659259963225  0.8868933285193403  0.9482721499443377
  0.2182661949460982  0.7782514390181380  0.0495784343098864
  0.4446962654166535  0.2220870003479718  0.9449150457310385
  0.5546764336793997  0.1050263372273190  0.0522741980658289
  0.4477598467657630  0.5538511391909740  0.9500496904790882
  0.5563232024540348  0.4485922545308608  0.0501214892714647
  0.4471064009694220  0.8945277691634019  0.9501715744560296
  0.5607496650536836  0.7814217091005847  0.0503744315490325
  0.7745653638838658  0.2138251587009127  0.9477239458864208
  0.8835514987828541  0.1063908843149814  0.0520008862094244
  0.7792951018239759  0.5599731694564446  0.9505434590825896
  0.8915537647692743  0.4475763119759325  0.0499612046546092
  0.7787642243215679  0.8898362491988621  0.9519987269242511
  0.8872768106346621  0.7765293106211553  0.0488617804439469
 
  0.00000000E+00  0.00000000E+00  0.00000000E+00
  0.00000000E+00  0.00000000E+00  0.00000000E+00
  0.00000000E+00  0.00000000E+00  0.00000000E+00
  0.00000000E+00  0.00000000E+00  0.00000000E+00
  0.00000000E+00  0.00000000E+00  0.00000000E+00
  0.00000000E+00  0.00000000E+00  0.00000000E+00
  0.00000000E+00  0.00000000E+00  0.00000000E+00
  0.00000000E+00  0.00000000E+00  0.00000000E+00
  0.00000000E+00  0.00000000E+00  0.00000000E+00
  0.00000000E+00  0.00000000E+00  0.00000000E+00
  0.00000000E+00  0.00000000E+00  0.00000000E+00
  0.00000000E+00  0.00000000E+00  0.00000000E+00
  0.00000000E+00  0.00000000E+00  0.00000000E+00
  0.00000000E+00  0.00000000E+00  0.00000000E+00
  0.00000000E+00  0.00000000E+00  0.00000000E+00
  0.00000000E+00  0.00000000E+00  0.00000000E+00
  0.00000000E+00  0.00000000E+00  0.00000000E+00
  0.00000000E+00  0.00000000E+00  0.00000000E+00
  0.00000000E+00  0.00000000E+00  0.00000000E+00
  0.00000000E+00  0.00000000E+00  0.00000000E+00
  0.00000000E+00  0.00000000E+00  0.00000000E+00
  0.00000000E+00  0.00000000E+00  0.00000000E+00
  0.00000000E+00  0.00000000E+00  0.00000000E+00
  0.00000000E+00  0.00000000E+00  0.00000000E+00
  0.00000000E+00  0.00000000E+00  0.00000000E+00
  0.00000000E+00  0.00000000E+00  0.00000000E+00
  0.00000000E+00  0.00000000E+00  0.00000000E+00
