crystal structure from VMoWS2 with Hexag
   1.00000000000000     
     8.3445527752187179    4.8151244275916634    0.0000000000000000
    -8.3264092278388837    4.7836259539321535    0.0000000000000000
     0.0000000000000000    0.0000000000000000   30.0000000000000000
   V    Mo   W    S 
     3     3     3    18
Direct
  0.9961856153050831  0.3332014682495301  0.0008598092641903
  0.3538832760586232  0.6721231552799365 -0.0003461175683876
  0.6560647365720839  0.3307636407546039 -0.0002872288584669
  0.3295761491380119  0.3134118886927678  0.0003819378800421
  0.3200832867424651  0.0077717977076755 -0.0001043260001074
  0.0305512505814358  0.0065447740034061  0.0003363628303315
  0.0067251577016136  0.6888995754291761 -0.0001521253916528
  0.6494206054065400 -0.0201422758268497 -0.0001230903935644
  0.6531764525313846  0.6687843463495169 -0.0001102994681373
  0.1106854288242702  0.2240059557873033  0.9485664975690079
  0.2260289201118849  0.1114117717735348  0.0573468053332123
  0.1150169104570292  0.5557899578235813  0.9523609353328462
  0.2205258393202457  0.4457177347851262  0.0482351536717463
  0.1148737562255250  0.8911794232382048  0.9434080769751753
  0.2249309881829673  0.7752420646994265  0.0497783174084287
  0.4499932310622661  0.2229096581952494  0.9463969595459167
  0.5572995668559653  0.1143576663113785  0.0499705700570400
  0.4389676898905209  0.5517860657487182  0.9486715406280165
  0.5584112048724676  0.4423760569228158  0.0513927072527989
  0.4381224950115021  0.8826945237529803  0.9484243737016886
  0.5472782680680647  0.7718269777569872  0.0549269584068212
  0.7759319625707083  0.2229018324296716  0.9516662549072160
  0.8902894213042253  0.1108904894121978  0.0481833213488084
  0.7748465137422963  0.5535532479146641  0.9501645983106974
  0.8860153582785741  0.4453000089464788  0.0474010138833166
  0.7849834229406993  0.8930996458627148  0.9504331983971952
  0.8883469456805072  0.7818130014767861  0.0522176941758021
 
  0.00000000E+00  0.00000000E+00  0.00000000E+00
  0.00000000E+00  0.00000000E+00  0.00000000E+00
  0.00000000E+00  0.00000000E+00  0.00000000E+00
  0.00000000E+00  0.00000000E+00  0.00000000E+00
  0.00000000E+00  0.00000000E+00  0.00000000E+00
  0.00000000E+00  0.00000000E+00  0.00000000E+00
  0.00000000E+00  0.00000000E+00  0.00000000E+00
  0.00000000E+00  0.00000000E+00  0.00000000E+00
  0.00000000E+00  0.00000000E+00  0.00000000E+00
  0.00000000E+00  0.00000000E+00  0.00000000E+00
  0.00000000E+00  0.00000000E+00  0.00000000E+00
  0.00000000E+00  0.00000000E+00  0.00000000E+00
  0.00000000E+00  0.00000000E+00  0.00000000E+00
  0.00000000E+00  0.00000000E+00  0.00000000E+00
  0.00000000E+00  0.00000000E+00  0.00000000E+00
  0.00000000E+00  0.00000000E+00  0.00000000E+00
  0.00000000E+00  0.00000000E+00  0.00000000E+00
  0.00000000E+00  0.00000000E+00  0.00000000E+00
  0.00000000E+00  0.00000000E+00  0.00000000E+00
  0.00000000E+00  0.00000000E+00  0.00000000E+00
  0.00000000E+00  0.00000000E+00  0.00000000E+00
  0.00000000E+00  0.00000000E+00  0.00000000E+00
  0.00000000E+00  0.00000000E+00  0.00000000E+00
  0.00000000E+00  0.00000000E+00  0.00000000E+00
  0.00000000E+00  0.00000000E+00  0.00000000E+00
  0.00000000E+00  0.00000000E+00  0.00000000E+00
  0.00000000E+00  0.00000000E+00  0.00000000E+00
