crystal structure from VMoWS2 with Hexag
   1.00000000000000     
     8.3348335669540390    4.7890714730793125    0.0000000000000000
    -8.3456193322090435    4.8078106186032254    0.0000000000000000
     0.0000000000000000    0.0000000000000000   30.0000000000000000
   V    Mo   W    S 
     3     3     3    18
Direct
  0.6658611632076046 -0.0112324737153804  0.0001769461368462
  0.6684163301657725  0.3304610912281736 -0.0007509572219858
  0.0068522346924381  0.6857929006204387  0.0002245951615881
  0.6452548534016602  0.6620906776290418 -0.0003693537245608
  0.3408700895670819  0.6523273699287406  0.0001192162886736
  0.3373835584719433  0.3611802647265390 -0.0003924527571089
  0.0042463552674488 -0.0113124483091851  0.0001887300856951
  1.0215393603674199  0.3409813696906352  0.0001102560668408
  0.3122782159982231 -0.0133528614689115  0.0001859255796375
  0.1139039041194111  0.2215684965305099  0.9475644453793733
  0.2254656707867445  0.1178597201929980  0.0505655972504311
  0.1094206136036269  0.5585193617002526  0.9498120714052390
  0.2238381166688478  0.4476146520713268  0.0565912187439284
  0.1052018031084632  0.8807410908805863  0.9451788431166314
  0.2171101537191085  0.7724517197390153  0.0512315069768411
  0.4449834968431641  0.2242929482001101  0.9515865583862713
  0.5566478514108645  0.1095227651543236  0.0481387769692656
  0.4441588048237357  0.5582396831389004  0.9427241417762443
  0.5566089857723830  0.4433840367845249  0.0512819341888016
  0.4474314860164746  0.8908159489022961  0.9506402246500824
  0.5560474524273014  0.7830524931666138  0.0535996457019730
  0.7783791803089620  0.2192447452534827  0.9525184786804198
  0.8868037445527298  0.1084722971834418  0.0498680542555579
  0.7791678936769738  0.5540219955103268  0.9518089121754134
  0.8894289107984680  0.4485895668333634  0.0479531814253944
  0.7756277210728196  0.8910604929401117  0.9486492724382366
  0.8852865025873259  0.7718265489652976  0.0507941300642548
 
  0.00000000E+00  0.00000000E+00  0.00000000E+00
  0.00000000E+00  0.00000000E+00  0.00000000E+00
  0.00000000E+00  0.00000000E+00  0.00000000E+00
  0.00000000E+00  0.00000000E+00  0.00000000E+00
  0.00000000E+00  0.00000000E+00  0.00000000E+00
  0.00000000E+00  0.00000000E+00  0.00000000E+00
  0.00000000E+00  0.00000000E+00  0.00000000E+00
  0.00000000E+00  0.00000000E+00  0.00000000E+00
  0.00000000E+00  0.00000000E+00  0.00000000E+00
  0.00000000E+00  0.00000000E+00  0.00000000E+00
  0.00000000E+00  0.00000000E+00  0.00000000E+00
  0.00000000E+00  0.00000000E+00  0.00000000E+00
  0.00000000E+00  0.00000000E+00  0.00000000E+00
  0.00000000E+00  0.00000000E+00  0.00000000E+00
  0.00000000E+00  0.00000000E+00  0.00000000E+00
  0.00000000E+00  0.00000000E+00  0.00000000E+00
  0.00000000E+00  0.00000000E+00  0.00000000E+00
  0.00000000E+00  0.00000000E+00  0.00000000E+00
  0.00000000E+00  0.00000000E+00  0.00000000E+00
  0.00000000E+00  0.00000000E+00  0.00000000E+00
  0.00000000E+00  0.00000000E+00  0.00000000E+00
  0.00000000E+00  0.00000000E+00  0.00000000E+00
  0.00000000E+00  0.00000000E+00  0.00000000E+00
  0.00000000E+00  0.00000000E+00  0.00000000E+00
  0.00000000E+00  0.00000000E+00  0.00000000E+00
  0.00000000E+00  0.00000000E+00  0.00000000E+00
  0.00000000E+00  0.00000000E+00  0.00000000E+00
