crystal structure from VMoWS2 with Hexag
   1.00000000000000     
     8.3937900390531865    4.8254041404295380    0.0000000000000000
    -8.3820590084956592    4.8048106506597570    0.0000000000000000
     0.0000000000000000    0.0000000000000000   30.0000000000000000
   V    Mo   W    S 
     3     3     3    18
Direct
  0.3114863500984461  0.6836307089832082 -0.0018138806578512
  0.9838694869704547  0.3534943338951760 -0.0017441363408767
  0.6817631090961266 -0.0237985888853117  0.0030035475424064
 -0.0035227764720067  0.6745151407268487 -0.0005874313525312
  0.6845956007715061  0.6582070895545258  0.0008526109187864
  0.3004518441126395 -0.0116999402065827 -0.0008204764420947
 -0.0075042669228913 -0.0303407022826789  0.0001741502942123
  0.3660516414842179  0.3318187119584132  0.0017661484455342
  0.6770795938256627  0.3614594105850566 -0.0002749987743042
  0.1115497409161898  0.2253782921089588  0.9590752755052704
  0.2168768053880539  0.1118957761568799  0.0533130077400943
  0.1111901663531974  0.5586201392497921  0.9473278517106845
  0.2232506450755381  0.4498148221897364  0.0433059558213538
  0.1046614142186302  0.8855931455331881  0.9425734108134497
  0.2192871717763973  0.7789199926505087  0.0529367148485747
  0.4507024099548800  0.2212335632487578  0.9468520210544322
  0.5578830263424515  0.1063456196288735  0.0405815496836483
  0.4407180483724399  0.5592514282606778  0.9552314565275533
  0.5630076933023885  0.4457120450321959  0.0576016314704487
  0.4490339516434485  0.8925381784798672  0.9520719623658619
  0.5474092132490379  0.7688057240875217  0.0482182158881405
  0.7771610940126126  0.2185686081482010  0.9519638543131267
  0.8935632532948236  0.1155733080994281  0.0474106357514962
  0.7821212452740162  0.5570741317516257  0.9431491054890718
  0.8898905853505085  0.4465449205024007  0.0531459376364911
  0.7764264396501570  0.8837017315377219  0.9475037057616285
  0.8892109662980242  0.7753568624825875  0.0571820731853831
 
  0.00000000E+00  0.00000000E+00  0.00000000E+00
  0.00000000E+00  0.00000000E+00  0.00000000E+00
  0.00000000E+00  0.00000000E+00  0.00000000E+00
  0.00000000E+00  0.00000000E+00  0.00000000E+00
  0.00000000E+00  0.00000000E+00  0.00000000E+00
  0.00000000E+00  0.00000000E+00  0.00000000E+00
  0.00000000E+00  0.00000000E+00  0.00000000E+00
  0.00000000E+00  0.00000000E+00  0.00000000E+00
  0.00000000E+00  0.00000000E+00  0.00000000E+00
  0.00000000E+00  0.00000000E+00  0.00000000E+00
  0.00000000E+00  0.00000000E+00  0.00000000E+00
  0.00000000E+00  0.00000000E+00  0.00000000E+00
  0.00000000E+00  0.00000000E+00  0.00000000E+00
  0.00000000E+00  0.00000000E+00  0.00000000E+00
  0.00000000E+00  0.00000000E+00  0.00000000E+00
  0.00000000E+00  0.00000000E+00  0.00000000E+00
  0.00000000E+00  0.00000000E+00  0.00000000E+00
  0.00000000E+00  0.00000000E+00  0.00000000E+00
  0.00000000E+00  0.00000000E+00  0.00000000E+00
  0.00000000E+00  0.00000000E+00  0.00000000E+00
  0.00000000E+00  0.00000000E+00  0.00000000E+00
  0.00000000E+00  0.00000000E+00  0.00000000E+00
  0.00000000E+00  0.00000000E+00  0.00000000E+00
  0.00000000E+00  0.00000000E+00  0.00000000E+00
  0.00000000E+00  0.00000000E+00  0.00000000E+00
  0.00000000E+00  0.00000000E+00  0.00000000E+00
  0.00000000E+00  0.00000000E+00  0.00000000E+00
