crystal structure from VMoWS2 with Hexag
   1.00000000000000     
     8.3367016811844845    4.8375604632324185    0.0000000000000000
    -8.3277477562570166    4.8220615665887925    0.0000000000000000
     0.0000000000000000    0.0000000000000000   30.0000000000000000
   V    Mo   W    S 
     3     3     3    18
Direct
  0.2972463526090900 -0.0192273279857328  0.0015937854153879
  0.3060146945828541  0.6486539394365215  0.0002185491372671
  0.6607272148731195  0.6312316661381054 -0.0013005573989621
  0.9992111204944271  0.3353513678625122 -0.0001127474843439
  0.7017313121527831  0.3486727314614425 -0.0002581047879998
 -0.0088476306036765  0.6402755483672615 -0.0006826374204076
  0.0154476943330666  0.0356098109319402  0.0004432737708156
  0.3107158458147024  0.3246345788675441 -0.0000968925258193
  0.7003862809196059  0.0358096621601730  0.0002593857642691
  0.1123021822176195  0.2299147085959214  0.9434918429500663
  0.2225797285036838  0.1102098565906730  0.0546461536090971
  0.1162331538074317  0.5595108318752164  0.9451384184467161
  0.2282553751296461  0.4513140189363831  0.0535557952176186
  0.1029329731624837  0.8883642880617999  0.9505053152268952
  0.2194464168508307  0.7734714948855241  0.0516025550170052
  0.4454407139370138  0.2158376151663053  0.9568531197558716
  0.5514008635608270  0.1098459874966992  0.0479546533795356
  0.4423856818271926  0.5570770239132670  0.9507050843095101
  0.5559784823303046  0.4379756957198107  0.0498899523841325
  0.4434749944209144  0.8914254184283018  0.9574347861281771
  0.5569398961295067  0.7768129843352866  0.0409694811522768
  0.7858919668645666  0.2299577166499296  0.9432170585917834
  0.8968971760557644  0.1196406699196472  0.0566707526658510
  0.7768268022837165  0.5538667729276402  0.9444180211839822
  0.8962517896882866  0.4448046197317214  0.0566019279302827
  0.7776694950528444  0.8867834514168539  0.9524458922072970
  0.8846738764383614  0.7803893215868279  0.0438350345736825
 
  0.00000000E+00  0.00000000E+00  0.00000000E+00
  0.00000000E+00  0.00000000E+00  0.00000000E+00
  0.00000000E+00  0.00000000E+00  0.00000000E+00
  0.00000000E+00  0.00000000E+00  0.00000000E+00
  0.00000000E+00  0.00000000E+00  0.00000000E+00
  0.00000000E+00  0.00000000E+00  0.00000000E+00
  0.00000000E+00  0.00000000E+00  0.00000000E+00
  0.00000000E+00  0.00000000E+00  0.00000000E+00
  0.00000000E+00  0.00000000E+00  0.00000000E+00
  0.00000000E+00  0.00000000E+00  0.00000000E+00
  0.00000000E+00  0.00000000E+00  0.00000000E+00
  0.00000000E+00  0.00000000E+00  0.00000000E+00
  0.00000000E+00  0.00000000E+00  0.00000000E+00
  0.00000000E+00  0.00000000E+00  0.00000000E+00
  0.00000000E+00  0.00000000E+00  0.00000000E+00
  0.00000000E+00  0.00000000E+00  0.00000000E+00
  0.00000000E+00  0.00000000E+00  0.00000000E+00
  0.00000000E+00  0.00000000E+00  0.00000000E+00
  0.00000000E+00  0.00000000E+00  0.00000000E+00
  0.00000000E+00  0.00000000E+00  0.00000000E+00
  0.00000000E+00  0.00000000E+00  0.00000000E+00
  0.00000000E+00  0.00000000E+00  0.00000000E+00
  0.00000000E+00  0.00000000E+00  0.00000000E+00
  0.00000000E+00  0.00000000E+00  0.00000000E+00
  0.00000000E+00  0.00000000E+00  0.00000000E+00
  0.00000000E+00  0.00000000E+00  0.00000000E+00
  0.00000000E+00  0.00000000E+00  0.00000000E+00
