crystal structure from VMoWS2 with Hexag
   1.00000000000000     
     8.3448450821517319    4.7918106403228373    0.0000000000000000
    -8.3408186803051496    4.7847728780886580    0.0000000000000000
     0.0000000000000000    0.0000000000000000   30.0000000000000000
   V    Mo   W    S 
     3     3     3    18
Direct
 -0.0163030064501132  0.0168827796536471 -0.0018995611230655
  0.6896339258237695  0.3212360533657743  0.0019071409123898
  0.3461547395283082 -0.0226428559228852  0.0013524418796614
  0.6880854023709037  0.0145828094744491  0.0004670162870314
  0.0171030215297635  0.6455447705739510  0.0017055471817549
  1.0011815418905199  0.3364525737680191  0.0002071575253659
  0.3133003313981642  0.3475821295040049 -0.0010618810968623
  0.3151968432656946  0.6470593594763417 -0.0000375956593589
  0.6487909660721803  0.6897251637163146 -0.0026129886302995
  0.1069646642199545  0.2174314206532841  0.9450372749974374
  0.2194585419128293  0.1065417643352385  0.0438694937382024
  0.1111176055665190  0.5497014495747055  0.9437695492873930
  0.2171200944987474  0.4444381068510576  0.0567095607770264
  0.1123734823875482  0.8911220379760287  0.9568300939132043
  0.2260336324492501  0.7775189235171555  0.0550741299094337
  0.4448771733420956  0.2202227621347580  0.9580322364485490
  0.5569524316741967  0.1145882802907899  0.0525961721100490
  0.4396248995748439  0.5558004634808853  0.9435073497582260
  0.5586442579525247  0.4463668527443609  0.0432399909297249
  0.4464767553263237  0.8860172644584317  0.9497317811157322
  0.5497844264332989  0.7846382026098663  0.0524492285925016
  0.7779172929418037  0.2258953613297301  0.9462591722235121
  0.8948365570112240  0.1119792535286766  0.0545334695939127
  0.7742398978651974  0.5537173342918175  0.9556009062273738
  0.8851276060219975  0.4382866713190677  0.0558497086380057
  0.7839532469148310  0.8976867163003616  0.9439657377207377
  0.8895681219145932  0.7798388044717529  0.0429167659423486
 
  0.00000000E+00  0.00000000E+00  0.00000000E+00
  0.00000000E+00  0.00000000E+00  0.00000000E+00
  0.00000000E+00  0.00000000E+00  0.00000000E+00
  0.00000000E+00  0.00000000E+00  0.00000000E+00
  0.00000000E+00  0.00000000E+00  0.00000000E+00
  0.00000000E+00  0.00000000E+00  0.00000000E+00
  0.00000000E+00  0.00000000E+00  0.00000000E+00
  0.00000000E+00  0.00000000E+00  0.00000000E+00
  0.00000000E+00  0.00000000E+00  0.00000000E+00
  0.00000000E+00  0.00000000E+00  0.00000000E+00
  0.00000000E+00  0.00000000E+00  0.00000000E+00
  0.00000000E+00  0.00000000E+00  0.00000000E+00
  0.00000000E+00  0.00000000E+00  0.00000000E+00
  0.00000000E+00  0.00000000E+00  0.00000000E+00
  0.00000000E+00  0.00000000E+00  0.00000000E+00
  0.00000000E+00  0.00000000E+00  0.00000000E+00
  0.00000000E+00  0.00000000E+00  0.00000000E+00
  0.00000000E+00  0.00000000E+00  0.00000000E+00
  0.00000000E+00  0.00000000E+00  0.00000000E+00
  0.00000000E+00  0.00000000E+00  0.00000000E+00
  0.00000000E+00  0.00000000E+00  0.00000000E+00
  0.00000000E+00  0.00000000E+00  0.00000000E+00
  0.00000000E+00  0.00000000E+00  0.00000000E+00
  0.00000000E+00  0.00000000E+00  0.00000000E+00
  0.00000000E+00  0.00000000E+00  0.00000000E+00
  0.00000000E+00  0.00000000E+00  0.00000000E+00
  0.00000000E+00  0.00000000E+00  0.00000000E+00
