crystal structure from VMoWS2 with Hexag
   1.00000000000000     
     8.3671208589043733    4.8059445337297975    0.0000000000000000
    -8.3674102732674793    4.8064484084492491    0.0000000000000000
     0.0000000000000000    0.0000000000000000   30.0000000000000000
   V    Mo   W    S 
     3     3     3    18
Direct
  0.6797116229454431  0.6759688078179384 -0.0011639684514662
  0.0176290395617867 -0.0174415907375699  0.0013616738505313
  0.3233284798191217  0.3220901290178144 -0.0012111464764960
  0.0133578020446809  0.6663231374680408  0.0004513006219315
  0.3346819336138043 -0.0129328503051263  0.0004738460530097
  0.3175106930303984  0.6814801030506696 -0.0009435834472598
  1.0141046312336948  0.3679999478408218 -0.0001262028522660
  0.6317239751662362 -0.0140663665888030 -0.0001246781695142
  0.6756982230665607  0.3220679064120026  0.0007527721260286
  0.1086774244675881  0.2168431248472029  0.9527290259895241
  0.2220128836523244  0.1123581152893319  0.0512207890110799
  0.1112547962528685  0.5603602811562295  0.9426371244019807
  0.2264759153988926  0.4503642407249419  0.0503066302535043
  0.1108102498629136  0.8893775498506287  0.9469753301762321
  0.2197145250707215  0.7803332573971885  0.0565136280547461
  0.4454019948219470  0.2253991122344815  0.9515381663470889
  0.5525298818351572  0.1093832594252023  0.0549176711055299
  0.4441541876461724  0.5563009356297136  0.9546297836900609
  0.5544427062218756  0.4452436582328475  0.0473650184773382
  0.4394585905370539  0.8882918885135613  0.9426539639426820
  0.5495194582922001  0.7731060917812552  0.0501340772715122
  0.7806575477419876  0.2189203265002345  0.9483289474496492
  0.8898013891555752  0.1100494693490573  0.0402520033927563
  0.7744943071631063  0.5539173528559225  0.9514779416967426
  0.8902317657000326  0.4473902512472021  0.0546801957581717
  0.7830790931498952  0.8910478568414029  0.9527967102630102
  0.8877513359849465  0.7780384576253773  0.0513728786638830
 
  0.00000000E+00  0.00000000E+00  0.00000000E+00
  0.00000000E+00  0.00000000E+00  0.00000000E+00
  0.00000000E+00  0.00000000E+00  0.00000000E+00
  0.00000000E+00  0.00000000E+00  0.00000000E+00
  0.00000000E+00  0.00000000E+00  0.00000000E+00
  0.00000000E+00  0.00000000E+00  0.00000000E+00
  0.00000000E+00  0.00000000E+00  0.00000000E+00
  0.00000000E+00  0.00000000E+00  0.00000000E+00
  0.00000000E+00  0.00000000E+00  0.00000000E+00
  0.00000000E+00  0.00000000E+00  0.00000000E+00
  0.00000000E+00  0.00000000E+00  0.00000000E+00
  0.00000000E+00  0.00000000E+00  0.00000000E+00
  0.00000000E+00  0.00000000E+00  0.00000000E+00
  0.00000000E+00  0.00000000E+00  0.00000000E+00
  0.00000000E+00  0.00000000E+00  0.00000000E+00
  0.00000000E+00  0.00000000E+00  0.00000000E+00
  0.00000000E+00  0.00000000E+00  0.00000000E+00
  0.00000000E+00  0.00000000E+00  0.00000000E+00
  0.00000000E+00  0.00000000E+00  0.00000000E+00
  0.00000000E+00  0.00000000E+00  0.00000000E+00
  0.00000000E+00  0.00000000E+00  0.00000000E+00
  0.00000000E+00  0.00000000E+00  0.00000000E+00
  0.00000000E+00  0.00000000E+00  0.00000000E+00
  0.00000000E+00  0.00000000E+00  0.00000000E+00
  0.00000000E+00  0.00000000E+00  0.00000000E+00
  0.00000000E+00  0.00000000E+00  0.00000000E+00
  0.00000000E+00  0.00000000E+00  0.00000000E+00
