crystal structure from VMoWS2 with Hexag
   1.00000000000000     
     8.3970003463188014    4.8158611362376256    0.0000000000000000
    -8.3926195523702418    4.8081204035805953    0.0000000000000000
     0.0000000000000000    0.0000000000000000   30.0000000000000000
   V    Mo   W    S 
     3     3     3    18
Direct
  0.0181623115707978 -0.0254502169393168  0.0027111072607509
  0.6488998117412217  0.6895670637184311 -0.0015824607502590
  0.3157343671090586  0.6568154562187555 -0.0004021737467852
  0.9920346882614173  0.3472731871060839 -0.0007046367171777
  0.6649999788434691  0.0260105791227076 -0.0017956138807550
  0.0159488821176594  0.6553758715215007  0.0008658172172104
  0.3299586651866676 -0.0335191598796620  0.0010021216915282
  0.3135784884522380  0.3549771504480757 -0.0016280153816290
  0.6956003010979219  0.3311764432444631  0.0014743518564773
  0.1011089597073348  0.2096939052119978  0.9508133614514024
  0.2266676923718585  0.1108485597624752  0.0483787772260102
  0.1178945884085321  0.5555970038956105  0.9445981852006976
  0.2177331566775404  0.4522792770898638  0.0539113222782985
  0.1144751823091158  0.8812444852988082  0.9481304110416734
  0.2237407968796492  0.7680430412621986  0.0563178010534866
  0.4422509203658418  0.2219418763411435  0.9585295796634026
  0.5537340560013444  0.1137761889661734  0.0541809603804206
  0.4417748429504759  0.5652214324056577  0.9473785677711495
  0.5574987564352223  0.4510027837907073  0.0433542377975199
  0.4447513299378326  0.8803980301243689  0.9471409756874358
  0.5507653144934093  0.7838751885856596  0.0488387302310233
  0.7829238090882644  0.2309802716144072  0.9425547939435210
  0.8954989402558322  0.1042581830948414  0.0444879116702086
  0.7745765077383507  0.5587838736344953  0.9541444757609581
  0.8900889016152796  0.4445468384251575  0.0575165777492901
  0.7874407613880753  0.8946618766291339  0.9516022487480507
  0.8803724424325748  0.7688352627838376  0.0481804839960735
 
  0.00000000E+00  0.00000000E+00  0.00000000E+00
  0.00000000E+00  0.00000000E+00  0.00000000E+00
  0.00000000E+00  0.00000000E+00  0.00000000E+00
  0.00000000E+00  0.00000000E+00  0.00000000E+00
  0.00000000E+00  0.00000000E+00  0.00000000E+00
  0.00000000E+00  0.00000000E+00  0.00000000E+00
  0.00000000E+00  0.00000000E+00  0.00000000E+00
  0.00000000E+00  0.00000000E+00  0.00000000E+00
  0.00000000E+00  0.00000000E+00  0.00000000E+00
  0.00000000E+00  0.00000000E+00  0.00000000E+00
  0.00000000E+00  0.00000000E+00  0.00000000E+00
  0.00000000E+00  0.00000000E+00  0.00000000E+00
  0.00000000E+00  0.00000000E+00  0.00000000E+00
  0.00000000E+00  0.00000000E+00  0.00000000E+00
  0.00000000E+00  0.00000000E+00  0.00000000E+00
  0.00000000E+00  0.00000000E+00  0.00000000E+00
  0.00000000E+00  0.00000000E+00  0.00000000E+00
  0.00000000E+00  0.00000000E+00  0.00000000E+00
  0.00000000E+00  0.00000000E+00  0.00000000E+00
  0.00000000E+00  0.00000000E+00  0.00000000E+00
  0.00000000E+00  0.00000000E+00  0.00000000E+00
  0.00000000E+00  0.00000000E+00  0.00000000E+00
  0.00000000E+00  0.00000000E+00  0.00000000E+00
  0.00000000E+00  0.00000000E+00  0.00000000E+00
  0.00000000E+00  0.00000000E+00  0.00000000E+00
  0.00000000E+00  0.00000000E+00  0.00000000E+00
  0.00000000E+00  0.00000000E+00  0.00000000E+00
