crystal structure from VMoWS2 with Hexag
   1.00000000000000     
     8.3598293470698053    4.8475609200158658    0.0000000000000000
    -8.3429357774388144    4.8185940354828833    0.0000000000000000
     0.0000000000000000    0.0000000000000000   30.0000000000000000
   V    Mo   W    S 
     3     3     3    18
Direct
  0.3726932910107769  0.3524850868770593 -0.0026780371836622
  0.2990447937273915 -0.0176285642929916  0.0017872516897634
  0.6872983932773615  0.3553839361217467 -0.0001061412916907
 -0.0049122008246375  0.6625689813361064  0.0005349773146272
  0.6956446124002411  0.6767608321375060 -0.0009032128004246
  0.9819193979998982  0.3472898445392663  0.0007390056624834
 -0.0180976317603154 -0.0278780191635920  0.0003695379069698
  0.2893277109387405  0.6493419872125721  0.0018794160074751
  0.7044500993477714  0.0097786099509147 -0.0028042453127241
  0.1189011434367281  0.2264510686314996  0.9596686572317129
  0.2258659226706868  0.1158372375945202  0.0483739780822165
  0.0997669260302074  0.5517890406580264  0.9447268601922109
  0.2203323273189023  0.4369568615467097  0.0500491363313559
  0.1099958327347004  0.8875691438817274  0.9468406424642308
  0.2163243608078159  0.7792929607650666  0.0549292438040853
  0.4486258775059798  0.2183254183453117  0.9532109576954498
  0.5533139881450306  0.1080551019352422  0.0409396996607636
  0.4446071253650636  0.5622546798235384  0.9520591117551797
  0.5638025204560830  0.4460739481054768  0.0511556664614198
  0.4420908347022041  0.8876456347428132  0.9558112175349955
  0.5487588864590813  0.7753831769521135  0.0438292856942434
  0.7722671402493313  0.2242621989503096  0.9464751748243008
  0.8958336470086417  0.1130876790252753  0.0529592619087574
  0.7755284769409944  0.5496765890003006  0.9452443147715778
  0.8796815735378605  0.4445763269429496  0.0558072403216027
  0.7846380280652937  0.8867369429593428  0.9422588246459350
  0.8905113758851376  0.7761377488987644  0.0568420738271321
 
  0.00000000E+00  0.00000000E+00  0.00000000E+00
  0.00000000E+00  0.00000000E+00  0.00000000E+00
  0.00000000E+00  0.00000000E+00  0.00000000E+00
  0.00000000E+00  0.00000000E+00  0.00000000E+00
  0.00000000E+00  0.00000000E+00  0.00000000E+00
  0.00000000E+00  0.00000000E+00  0.00000000E+00
  0.00000000E+00  0.00000000E+00  0.00000000E+00
  0.00000000E+00  0.00000000E+00  0.00000000E+00
  0.00000000E+00  0.00000000E+00  0.00000000E+00
  0.00000000E+00  0.00000000E+00  0.00000000E+00
  0.00000000E+00  0.00000000E+00  0.00000000E+00
  0.00000000E+00  0.00000000E+00  0.00000000E+00
  0.00000000E+00  0.00000000E+00  0.00000000E+00
  0.00000000E+00  0.00000000E+00  0.00000000E+00
  0.00000000E+00  0.00000000E+00  0.00000000E+00
  0.00000000E+00  0.00000000E+00  0.00000000E+00
  0.00000000E+00  0.00000000E+00  0.00000000E+00
  0.00000000E+00  0.00000000E+00  0.00000000E+00
  0.00000000E+00  0.00000000E+00  0.00000000E+00
  0.00000000E+00  0.00000000E+00  0.00000000E+00
  0.00000000E+00  0.00000000E+00  0.00000000E+00
  0.00000000E+00  0.00000000E+00  0.00000000E+00
  0.00000000E+00  0.00000000E+00  0.00000000E+00
  0.00000000E+00  0.00000000E+00  0.00000000E+00
  0.00000000E+00  0.00000000E+00  0.00000000E+00
  0.00000000E+00  0.00000000E+00  0.00000000E+00
  0.00000000E+00  0.00000000E+00  0.00000000E+00
