crystal structure from VMoWS2 with Hexag
   1.00000000000000     
     8.3367233114644197    4.8083468093600938    0.0000000000000000
    -8.3697752309395419    4.8657668490848236    0.0000000000000000
     0.0000000000000000    0.0000000000000000   30.0000000000000000
   V    Mo   W    S 
     3     3     3    18
Direct
  0.6410789688365583 -0.0436927329584257 -0.0027033600630746
  0.3237408970604602  0.3409278617820242  0.0003170604208841
  0.3558844705976553  0.0409489109944063  0.0016554445153425
  1.0139669535056814  0.3549654441094605  0.0006643873312871
  0.3220012557312854  0.6388742580377773 -0.0008854507612230
  0.6924584803395292  0.3613300181694059  0.0017949305518231
  0.0217535940770130  0.0413237956488952  0.0016219734043527
 -0.0015927108404420  0.6354881665343327 -0.0014972185479132
  0.6330347992665957  0.6367759524575470 -0.0010024566841442
  0.1189379505837400  0.2342596169120365  0.9460718661826121
  0.2317782479866604  0.1235841365586673  0.0526763748034448
  0.1113388525108530  0.5540758515036397  0.9424502778120479
  0.2221135126699009  0.4372011219962315  0.0553454246462112
  0.1178140664022308  0.8934715004922013  0.9566657063638589
  0.2256060198862833  0.7839215476069298  0.0458662658267214
  0.4505741440617546  0.2330257743479677  0.9511062720985253
  0.5611905144415322  0.1074879825558769  0.0483709333555051
  0.4349559855373345  0.5441921000701648  0.9436442786203766
  0.5470654134400774  0.4359037449418144  0.0528685754499442
  0.4351679972779283  0.8882750140449308  0.9519857686606994
  0.5477395818082645  0.7666960696254259  0.0519004374249870
  0.7706433630065873  0.2086830004106743  0.9556243144169890
  0.8763514874072498  0.1083903032119143  0.0491638510977148
  0.7808320218055808  0.5604778132561945  0.9459074751657270
  0.8975621093895303  0.4477963972528632  0.0573816101091237
  0.7774535524323043  0.8843216424858213  0.9516457845779166
  0.8887629242148359  0.7795091614288008  0.0413593724202667
 
  0.00000000E+00  0.00000000E+00  0.00000000E+00
  0.00000000E+00  0.00000000E+00  0.00000000E+00
  0.00000000E+00  0.00000000E+00  0.00000000E+00
  0.00000000E+00  0.00000000E+00  0.00000000E+00
  0.00000000E+00  0.00000000E+00  0.00000000E+00
  0.00000000E+00  0.00000000E+00  0.00000000E+00
  0.00000000E+00  0.00000000E+00  0.00000000E+00
  0.00000000E+00  0.00000000E+00  0.00000000E+00
  0.00000000E+00  0.00000000E+00  0.00000000E+00
  0.00000000E+00  0.00000000E+00  0.00000000E+00
  0.00000000E+00  0.00000000E+00  0.00000000E+00
  0.00000000E+00  0.00000000E+00  0.00000000E+00
  0.00000000E+00  0.00000000E+00  0.00000000E+00
  0.00000000E+00  0.00000000E+00  0.00000000E+00
  0.00000000E+00  0.00000000E+00  0.00000000E+00
  0.00000000E+00  0.00000000E+00  0.00000000E+00
  0.00000000E+00  0.00000000E+00  0.00000000E+00
  0.00000000E+00  0.00000000E+00  0.00000000E+00
  0.00000000E+00  0.00000000E+00  0.00000000E+00
  0.00000000E+00  0.00000000E+00  0.00000000E+00
  0.00000000E+00  0.00000000E+00  0.00000000E+00
  0.00000000E+00  0.00000000E+00  0.00000000E+00
  0.00000000E+00  0.00000000E+00  0.00000000E+00
  0.00000000E+00  0.00000000E+00  0.00000000E+00
  0.00000000E+00  0.00000000E+00  0.00000000E+00
  0.00000000E+00  0.00000000E+00  0.00000000E+00
  0.00000000E+00  0.00000000E+00  0.00000000E+00
