crystal structure from VMoWS2 with Hexag
   1.00000000000000     
     8.3709576840862372    4.8128315816863783    0.0000000000000000
    -8.3907294035527134    4.8467612097660435    0.0000000000000000
     0.0000000000000000    0.0000000000000000   30.0000000000000000
   V    Mo   W    S 
     3     3     3    18
Direct
  0.6583476886455129  0.3124999463861272 -0.0005872477241502
  0.3446353060241750  0.3164408285649619  0.0001790128352904
  0.6808621158066848  0.6453497343693357 -0.0003588321238884
  0.6505037685489927  0.0190541181274641  0.0000817758107432
  0.0208005332534197  0.7047032279172640  0.0006988305377205
  0.3269661213145487 -0.0071533059013287 -0.0001969916497357
  0.0149501190957548 -0.0083136702434529 -0.0003487610004816
  0.9683889365105465  0.2939572758625347 -0.0016909841057425
  0.3384618151411591  0.7057461971187778  0.0015761996576001
  0.1165095719212255  0.2214280402331992  0.9490955256228877
  0.2223979104125971  0.1165342740354511  0.0533091267745587
  0.1101496545798030  0.5533102595124292  0.9536053737843656
  0.2212634979132166  0.4443598447577497  0.0416638512890341
  0.1175448724837631  0.8972538600252191  0.9431464848716198
  0.2223110900892410  0.7870743393301358  0.0574466302053819
  0.4500076561069554  0.2285656218812128  0.9477541802831112
  0.5503550224134943  0.1197134518610149  0.0543214820551547
  0.4460755838812470  0.5575176126175861  0.9574531699569472
  0.5587913504400361  0.4385531670701241  0.0497326739418049
  0.4428308693404017  0.8949680612644705  0.9440239891631638
  0.5573042199304593  0.7770353216839968  0.0485459935975434
  0.7692887956538066  0.2223935561350733  0.9437440133745563
  0.8780751926476714  0.0977415842491046  0.0518767384483650
  0.7851016374836577  0.5526610298511986  0.9506442486726339
  0.8909701648607138  0.4468826798930802  0.0440835933892685
  0.7707091545027571  0.8828707686515158  0.9567263621007092
  0.8846118044351446  0.7770666282233244  0.0534734594315309
 
  0.00000000E+00  0.00000000E+00  0.00000000E+00
  0.00000000E+00  0.00000000E+00  0.00000000E+00
  0.00000000E+00  0.00000000E+00  0.00000000E+00
  0.00000000E+00  0.00000000E+00  0.00000000E+00
  0.00000000E+00  0.00000000E+00  0.00000000E+00
  0.00000000E+00  0.00000000E+00  0.00000000E+00
  0.00000000E+00  0.00000000E+00  0.00000000E+00
  0.00000000E+00  0.00000000E+00  0.00000000E+00
  0.00000000E+00  0.00000000E+00  0.00000000E+00
  0.00000000E+00  0.00000000E+00  0.00000000E+00
  0.00000000E+00  0.00000000E+00  0.00000000E+00
  0.00000000E+00  0.00000000E+00  0.00000000E+00
  0.00000000E+00  0.00000000E+00  0.00000000E+00
  0.00000000E+00  0.00000000E+00  0.00000000E+00
  0.00000000E+00  0.00000000E+00  0.00000000E+00
  0.00000000E+00  0.00000000E+00  0.00000000E+00
  0.00000000E+00  0.00000000E+00  0.00000000E+00
  0.00000000E+00  0.00000000E+00  0.00000000E+00
  0.00000000E+00  0.00000000E+00  0.00000000E+00
  0.00000000E+00  0.00000000E+00  0.00000000E+00
  0.00000000E+00  0.00000000E+00  0.00000000E+00
  0.00000000E+00  0.00000000E+00  0.00000000E+00
  0.00000000E+00  0.00000000E+00  0.00000000E+00
  0.00000000E+00  0.00000000E+00  0.00000000E+00
  0.00000000E+00  0.00000000E+00  0.00000000E+00
  0.00000000E+00  0.00000000E+00  0.00000000E+00
  0.00000000E+00  0.00000000E+00  0.00000000E+00
