crystal structure from VMoWS2 with Hexag
   1.00000000000000     
     8.3142057484104548    4.8319726144807147    0.0000000000000000
    -8.2922672133812103    4.7940545617191974    0.0000000000000000
     0.0000000000000000    0.0000000000000000   30.0000000000000000
   V    Mo   W    S 
     3     3     3    18
Direct
  0.2985896209060754 -0.0227111332668208  0.0018274601440220
  0.7000220360616448  0.6831196360897731 -0.0020451777740495
  0.2969699447640459  0.3196819660901863  0.0018127463206328
 -0.0066180314762146 -0.0213525725917772  0.0003425481900080
  0.2950889571534868  0.6490886813364846  0.0017234715746026
  0.0024846122153880  0.6658751998989602  0.0001037477917009
  0.9985770976636538  0.3518294099976087 -0.0000083552867926
  0.7071330536801973  0.0158825402539186 -0.0026735615799164
  0.7007006044839417  0.3543552882018923 -0.0010583820416964
  0.1063169141115410  0.2205397561193322  0.9498794565591896
  0.2237912568590039  0.1089644759807067  0.0527680701988144
  0.1053004638324351  0.5552789410465002  0.9437530286303030
  0.2171776056703386  0.4405446073901986  0.0553110983060424
  0.1152912160469121  0.8891470090988481  0.9461412830247504
  0.2203385275114321  0.7818721529156545  0.0557262004074370
  0.4417315105574527  0.2222920854568702  0.9581476085568656
  0.5544898800126449  0.1079046432925154  0.0429356994362214
  0.4450152854565921  0.5533522663142154  0.9570225103576320
  0.5536517339248453  0.4475472616439014  0.0439688243274061
  0.4458709518173882  0.8917213624355249  0.9555136132765312
  0.5569414780978081  0.7763662842605935  0.0430420523401722
  0.7821427754625535  0.2263879738478814  0.9438057428366375
  0.9009655831491347  0.1163999956604900  0.0523207587521896
  0.7777641092470929  0.5599105188147470  0.9449095773228100
  0.8938416321624348  0.4500280872602392  0.0566497316558126
  0.7806590722144220  0.8822442044473827  0.9437205651648676
  0.8839765618507178  0.7719438114817454  0.0543595807078051
 
  0.00000000E+00  0.00000000E+00  0.00000000E+00
  0.00000000E+00  0.00000000E+00  0.00000000E+00
  0.00000000E+00  0.00000000E+00  0.00000000E+00
  0.00000000E+00  0.00000000E+00  0.00000000E+00
  0.00000000E+00  0.00000000E+00  0.00000000E+00
  0.00000000E+00  0.00000000E+00  0.00000000E+00
  0.00000000E+00  0.00000000E+00  0.00000000E+00
  0.00000000E+00  0.00000000E+00  0.00000000E+00
  0.00000000E+00  0.00000000E+00  0.00000000E+00
  0.00000000E+00  0.00000000E+00  0.00000000E+00
  0.00000000E+00  0.00000000E+00  0.00000000E+00
  0.00000000E+00  0.00000000E+00  0.00000000E+00
  0.00000000E+00  0.00000000E+00  0.00000000E+00
  0.00000000E+00  0.00000000E+00  0.00000000E+00
  0.00000000E+00  0.00000000E+00  0.00000000E+00
  0.00000000E+00  0.00000000E+00  0.00000000E+00
  0.00000000E+00  0.00000000E+00  0.00000000E+00
  0.00000000E+00  0.00000000E+00  0.00000000E+00
  0.00000000E+00  0.00000000E+00  0.00000000E+00
  0.00000000E+00  0.00000000E+00  0.00000000E+00
  0.00000000E+00  0.00000000E+00  0.00000000E+00
  0.00000000E+00  0.00000000E+00  0.00000000E+00
  0.00000000E+00  0.00000000E+00  0.00000000E+00
  0.00000000E+00  0.00000000E+00  0.00000000E+00
  0.00000000E+00  0.00000000E+00  0.00000000E+00
  0.00000000E+00  0.00000000E+00  0.00000000E+00
  0.00000000E+00  0.00000000E+00  0.00000000E+00
