crystal structure from VMoWS2 with Hexag
   1.00000000000000     
     8.3713030820578638    4.8421355572056806    0.0000000000000000
    -8.3733962915632656    4.8456666910864801    0.0000000000000000
     0.0000000000000000    0.0000000000000000   30.0000000000000000
   V    Mo   W    S 
     3     3     3    18
Direct
  0.3576979215347508  0.0248690310388493  0.0002340014915561
  0.3681946347757133  0.3512403378826411 -0.0006980677802363
  0.6849203558773469  0.0366292706874357  0.0006059378499679
  0.6742000415587065  0.3393459726176777  0.0000078364587002
 -0.0198625070766126  0.6454670527884938  0.0000529349295823
  0.9858470784207986  0.3529309480070437 -0.0002303350914157
 -0.0165233560833784 -0.0393389561378848 -0.0017813410343371
  0.2934193371063173  0.6498549255368319  0.0016645466287867
  0.6854986452451480  0.6527909100406589  0.0000666952474652
  0.1132068180017897  0.2201022314321908  0.9596016879521917
  0.2267671708578158  0.1151209824050585  0.0462053997345305
  0.1045313173409972  0.5544756413191629  0.9438104311979408
  0.2187583986848576  0.4369317430308767  0.0497039949808700
  0.1203448728528878  0.8855177497283119  0.9506448200803019
  0.2183269957419851  0.7857986693807882  0.0496148099181703
  0.4433150978585153  0.2239516390332454  0.9486675320770346
  0.5581281125758004  0.1104278964912951  0.0516776605539416
  0.4434506920243528  0.5562428250472545  0.9514642523896878
  0.5544870555436524  0.4430392129143127  0.0542518673960406
  0.4488107099176356  0.8941905769432772  0.9541340053936268
  0.5542321158479899  0.7799118133064049  0.0402794036100639
  0.7759423523917540  0.2215156637527982  0.9454559479486702
  0.8896194886125947  0.1098753704638035  0.0483636560218781
  0.7759067831688703  0.5497769825511342  0.9431499462909448
  0.8828410863937064  0.4424769384474789  0.0568640611715173
  0.7695073213076741  0.8847846461315271  0.9501993041482302
  0.8866459129553077  0.7702843786369045  0.0559889096342806
 
  0.00000000E+00  0.00000000E+00  0.00000000E+00
  0.00000000E+00  0.00000000E+00  0.00000000E+00
  0.00000000E+00  0.00000000E+00  0.00000000E+00
  0.00000000E+00  0.00000000E+00  0.00000000E+00
  0.00000000E+00  0.00000000E+00  0.00000000E+00
  0.00000000E+00  0.00000000E+00  0.00000000E+00
  0.00000000E+00  0.00000000E+00  0.00000000E+00
  0.00000000E+00  0.00000000E+00  0.00000000E+00
  0.00000000E+00  0.00000000E+00  0.00000000E+00
  0.00000000E+00  0.00000000E+00  0.00000000E+00
  0.00000000E+00  0.00000000E+00  0.00000000E+00
  0.00000000E+00  0.00000000E+00  0.00000000E+00
  0.00000000E+00  0.00000000E+00  0.00000000E+00
  0.00000000E+00  0.00000000E+00  0.00000000E+00
  0.00000000E+00  0.00000000E+00  0.00000000E+00
  0.00000000E+00  0.00000000E+00  0.00000000E+00
  0.00000000E+00  0.00000000E+00  0.00000000E+00
  0.00000000E+00  0.00000000E+00  0.00000000E+00
  0.00000000E+00  0.00000000E+00  0.00000000E+00
  0.00000000E+00  0.00000000E+00  0.00000000E+00
  0.00000000E+00  0.00000000E+00  0.00000000E+00
  0.00000000E+00  0.00000000E+00  0.00000000E+00
  0.00000000E+00  0.00000000E+00  0.00000000E+00
  0.00000000E+00  0.00000000E+00  0.00000000E+00
  0.00000000E+00  0.00000000E+00  0.00000000E+00
  0.00000000E+00  0.00000000E+00  0.00000000E+00
  0.00000000E+00  0.00000000E+00  0.00000000E+00
