crystal structure from VMoWS2 with Hexag
   1.00000000000000     
     8.4022348505330680    4.8343377799974174    0.0000000000000000
    -8.3960964344888076    4.8240055851946790    0.0000000000000000
     0.0000000000000000    0.0000000000000000   30.0000000000000000
   V    Mo   W    S 
     3     3     3    18
Direct
  0.0204489616794266 -0.0173495359401726  0.0003542477193650
  0.6760033521479752  0.3181060858533031  0.0007555663978406
  0.6964892391163922  0.6630502956745348  0.0005741705666511
  0.3120200729062219  0.6692829052330420 -0.0003434883932068
  0.3329252131473852 -0.0235372941515632  0.0001932909074011
  0.0170910591650455  0.6769158441574563 -0.0003247196317074
  1.0156637472308150  0.3651075331555077 -0.0005360407287860
  0.3098755897890402  0.3545264513587265 -0.0015304593839494
  0.6284287079387284 -0.0218807760161147  0.0009482533597217
  0.1002931857563041  0.2186961056208971  0.9493724931881965
  0.2268494274636093  0.1177791561831075  0.0481344539937360
  0.1088021580666482  0.5601878739408664  0.9426528462754246
  0.2158372253073227  0.4524368824498277  0.0557102469928754
  0.1156673190066036  0.8923154902512237  0.9455266504051548
  0.2209314013202375  0.7793634684161809  0.0567096323412831
  0.4420628930123919  0.2298947411526252  0.9576224013264619
  0.5546220324172818  0.1111739376040043  0.0534628844738393
  0.4558285460820781  0.5692167308333503  0.9519729900414228
  0.5565172189819224  0.4440979929145160  0.0463311765523795
  0.4390433875938408  0.8834941935706696  0.9433115369474683
  0.5512078983950425  0.7668704891330607  0.0493884886225049
  0.7721258380022248  0.2166672864831602  0.9504420570414087
  0.8885524755928430  0.1077548926883365  0.0398744258505798
  0.7765210577525499  0.5469481453233328  0.9509533392038775
  0.8835685974461744  0.4458721497615448  0.0516601782066824
  0.7837956591467073  0.8873740258366150  0.9548803285752272
  0.8970421889721754  0.7838493819895300  0.0519029483481453
 
  0.00000000E+00  0.00000000E+00  0.00000000E+00
  0.00000000E+00  0.00000000E+00  0.00000000E+00
  0.00000000E+00  0.00000000E+00  0.00000000E+00
  0.00000000E+00  0.00000000E+00  0.00000000E+00
  0.00000000E+00  0.00000000E+00  0.00000000E+00
  0.00000000E+00  0.00000000E+00  0.00000000E+00
  0.00000000E+00  0.00000000E+00  0.00000000E+00
  0.00000000E+00  0.00000000E+00  0.00000000E+00
  0.00000000E+00  0.00000000E+00  0.00000000E+00
  0.00000000E+00  0.00000000E+00  0.00000000E+00
  0.00000000E+00  0.00000000E+00  0.00000000E+00
  0.00000000E+00  0.00000000E+00  0.00000000E+00
  0.00000000E+00  0.00000000E+00  0.00000000E+00
  0.00000000E+00  0.00000000E+00  0.00000000E+00
  0.00000000E+00  0.00000000E+00  0.00000000E+00
  0.00000000E+00  0.00000000E+00  0.00000000E+00
  0.00000000E+00  0.00000000E+00  0.00000000E+00
  0.00000000E+00  0.00000000E+00  0.00000000E+00
  0.00000000E+00  0.00000000E+00  0.00000000E+00
  0.00000000E+00  0.00000000E+00  0.00000000E+00
  0.00000000E+00  0.00000000E+00  0.00000000E+00
  0.00000000E+00  0.00000000E+00  0.00000000E+00
  0.00000000E+00  0.00000000E+00  0.00000000E+00
  0.00000000E+00  0.00000000E+00  0.00000000E+00
  0.00000000E+00  0.00000000E+00  0.00000000E+00
  0.00000000E+00  0.00000000E+00  0.00000000E+00
  0.00000000E+00  0.00000000E+00  0.00000000E+00
