crystal structure from VMoWS2 with Hexag
   1.00000000000000     
     8.3570924245040885    4.8587514850919336    0.0000000000000000
    -8.3340650238844862    4.8188886355510050    0.0000000000000000
     0.0000000000000000    0.0000000000000000   30.0000000000000000
   V    Mo   W    S 
     3     3     3    18
Direct
  0.7076767992889968  0.0245245483498237 -0.0021970719565319
  0.3086710658477158  0.3189071066125674  0.0003193512968962
  0.6258052143765975  0.6504799291030776  0.0041998070235211
  0.2933646310989863 -0.0207491730521427  0.0029460963318304
  0.0216936490703223  0.0283501540815938 -0.0008758378954421
  1.0014650820504074  0.3367382589733837 -0.0006426402183569
  0.0191814281035210  0.6597977859443661 -0.0004525760826550
  0.3062645255811763  0.6550613450302404  0.0003292937646392
  0.7086940351747892  0.3473359897161185 -0.0021313567882578
  0.1195686690438100  0.2284067083777298  0.9446082280016964
  0.2227644278289044  0.1178026106411694  0.0556417736854370
  0.1104610221398357  0.5537635509442008  0.9428486182013820
  0.2272752391373966  0.4429620084751857  0.0530317340402726
  0.1013056201545251  0.8835664393396828  0.9465644161113045
  0.2173110783428338  0.7734547990001833  0.0572188282138410
  0.4484758476647208  0.2223922386178807  0.9570043649333764
  0.5585141885373814  0.1094147712245766  0.0435535316358023
  0.4352959766621177  0.5480221831384210  0.9504881632320047
  0.5524363428104864  0.4343754016101029  0.0468878200761871
  0.4512813347352834  0.8946808814172437  0.9566493252119410
  0.5539826947513452  0.7885999246584425  0.0480882792906425
  0.7861227214590835  0.2199553465544963  0.9440234621555378
  0.8929637517676232  0.1139754283947667  0.0527244483390021
  0.7761574412209229  0.5622977574886957  0.9508468081718291
  0.8989528843213912  0.4482963467622480  0.0550364725302949
  0.7729780315251827  0.8829959320418819  0.9520079639828203
  0.8795507507416269  0.7728061800316322  0.0412805959109709
 
  0.00000000E+00  0.00000000E+00  0.00000000E+00
  0.00000000E+00  0.00000000E+00  0.00000000E+00
  0.00000000E+00  0.00000000E+00  0.00000000E+00
  0.00000000E+00  0.00000000E+00  0.00000000E+00
  0.00000000E+00  0.00000000E+00  0.00000000E+00
  0.00000000E+00  0.00000000E+00  0.00000000E+00
  0.00000000E+00  0.00000000E+00  0.00000000E+00
  0.00000000E+00  0.00000000E+00  0.00000000E+00
  0.00000000E+00  0.00000000E+00  0.00000000E+00
  0.00000000E+00  0.00000000E+00  0.00000000E+00
  0.00000000E+00  0.00000000E+00  0.00000000E+00
  0.00000000E+00  0.00000000E+00  0.00000000E+00
  0.00000000E+00  0.00000000E+00  0.00000000E+00
  0.00000000E+00  0.00000000E+00  0.00000000E+00
  0.00000000E+00  0.00000000E+00  0.00000000E+00
  0.00000000E+00  0.00000000E+00  0.00000000E+00
  0.00000000E+00  0.00000000E+00  0.00000000E+00
  0.00000000E+00  0.00000000E+00  0.00000000E+00
  0.00000000E+00  0.00000000E+00  0.00000000E+00
  0.00000000E+00  0.00000000E+00  0.00000000E+00
  0.00000000E+00  0.00000000E+00  0.00000000E+00
  0.00000000E+00  0.00000000E+00  0.00000000E+00
  0.00000000E+00  0.00000000E+00  0.00000000E+00
  0.00000000E+00  0.00000000E+00  0.00000000E+00
  0.00000000E+00  0.00000000E+00  0.00000000E+00
  0.00000000E+00  0.00000000E+00  0.00000000E+00
  0.00000000E+00  0.00000000E+00  0.00000000E+00
