crystal structure from VMoWS2 with Hexag
   1.00000000000000     
     8.3801677853827119    4.8274803205380348    0.0000000000000000
    -8.3880332901250263    4.8409696959080835    0.0000000000000000
     0.0000000000000000    0.0000000000000000   30.0000000000000000
   V    Mo   W    S 
     3     3     3    18
Direct
  0.0004560640545453 -0.0246060785680252  0.0003012642715453
  0.6850159506526514  0.6481446079600296  0.0006157228903521
  0.3169121985375404 -0.0345099156373077 -0.0006912876606227
 -0.0016560577465887  0.6589076203499938  0.0000035967134669
  0.7002278935927209  0.3470491095568989 -0.0002240925666398
  0.9984681089855444  0.3529810121437783  0.0000257972185690
  0.3104212359427576  0.3499914766295938 -0.0018106783947446
  0.3004555381230066  0.6478546256050510  0.0000330355867186
  0.6894526245591405  0.0395962104605409  0.0016550605147446
  0.0984297089214845  0.2127179741804676  0.9506748562230293
  0.2217448275299240  0.1067418849363446  0.0461853651001092
  0.1070049654360723  0.5571441102597248  0.9431481125173278
  0.2167966846704602  0.4467929365456761  0.0559362545871502
  0.1142426289516616  0.8900734867039632  0.9487623218612956
  0.2218864385308712  0.7790539811038368  0.0541853396933188
  0.4401812452088295  0.2203108266736363  0.9595428967496759
  0.5516665798647168  0.1144185161992108  0.0498058077117816
  0.4486022250582971  0.5639160777123503  0.9502107278057811
  0.5533891478070072  0.4434035790679260  0.0483145256474461
  0.4461804403242946  0.8899098172516174  0.9514244865710183
  0.5588294441414311  0.7787674491636256  0.0402610464241004
  0.7830609703069505  0.2284040797987315  0.9438153586638991
  0.9005660007390590  0.1147224914083839  0.0496093463862703
  0.7787281562560342  0.5570206643438674  0.9454851553582795
  0.8928627588469393  0.4502656091017546  0.0568252897234716
  0.7788031337945390  0.8842717221418400  0.9541843486951530
  0.8854855403470926  0.7748705783840643  0.0517202409074897
 
  0.00000000E+00  0.00000000E+00  0.00000000E+00
  0.00000000E+00  0.00000000E+00  0.00000000E+00
  0.00000000E+00  0.00000000E+00  0.00000000E+00
  0.00000000E+00  0.00000000E+00  0.00000000E+00
  0.00000000E+00  0.00000000E+00  0.00000000E+00
  0.00000000E+00  0.00000000E+00  0.00000000E+00
  0.00000000E+00  0.00000000E+00  0.00000000E+00
  0.00000000E+00  0.00000000E+00  0.00000000E+00
  0.00000000E+00  0.00000000E+00  0.00000000E+00
  0.00000000E+00  0.00000000E+00  0.00000000E+00
  0.00000000E+00  0.00000000E+00  0.00000000E+00
  0.00000000E+00  0.00000000E+00  0.00000000E+00
  0.00000000E+00  0.00000000E+00  0.00000000E+00
  0.00000000E+00  0.00000000E+00  0.00000000E+00
  0.00000000E+00  0.00000000E+00  0.00000000E+00
  0.00000000E+00  0.00000000E+00  0.00000000E+00
  0.00000000E+00  0.00000000E+00  0.00000000E+00
  0.00000000E+00  0.00000000E+00  0.00000000E+00
  0.00000000E+00  0.00000000E+00  0.00000000E+00
  0.00000000E+00  0.00000000E+00  0.00000000E+00
  0.00000000E+00  0.00000000E+00  0.00000000E+00
  0.00000000E+00  0.00000000E+00  0.00000000E+00
  0.00000000E+00  0.00000000E+00  0.00000000E+00
  0.00000000E+00  0.00000000E+00  0.00000000E+00
  0.00000000E+00  0.00000000E+00  0.00000000E+00
  0.00000000E+00  0.00000000E+00  0.00000000E+00
  0.00000000E+00  0.00000000E+00  0.00000000E+00
