crystal structure from VMoWS2 with Hexag
   1.00000000000000     
     8.3432591630189172    4.7855689083865389    0.0000000000000000
    -8.3472599320720153    4.7925607679714179    0.0000000000000000
     0.0000000000000000    0.0000000000000000   30.0000000000000000
   V    Mo   W    S 
     3     3     3    18
Direct
  0.0166829685783796 -0.0165070010685780  0.0019213676920226
  0.9775626138429945  0.3463468367274178 -0.0014361518272107
  0.3211446411942005  0.6895546399443020 -0.0019252842817131
  0.6456638817621920  0.0171082206202226 -0.0017111688324440
  0.3364427288046859  0.0011670982010571 -0.0001932588353922
  0.0145156128050325  0.6880657836938955 -0.0004366112555356
  0.3475621570166862  0.3133305833396429  0.0010781727039809
  0.6471199700962585  0.3152138138182752  0.0000285594668160
  0.6897475321888487  0.6489566376166914  0.0026306531333539
  0.1065131662313951  0.2194494418404843  0.9561625193556861
  0.2174022291403049  0.1068753869951682  0.0549176044025333
  0.1145274150211815  0.5570708541033629  0.9473741125212329
  0.2202544086827136  0.4449009279375354  0.0419698400690901
  0.1118722743888879  0.8948433090783786  0.9455393582731146
  0.2259248147588707  0.7778759062186880  0.0537281408244688
  0.4443913357953724  0.2171376513647591  0.9433120198566484
  0.5498131607627456  0.1111199608082190  0.0562204053989629
  0.4463240426343486  0.5586870453086245  0.9567727324765148
  0.5559466596953866  0.4396138212133064  0.0564803412868784
  0.4383169558104021  0.8851368103364189  0.9441765270556414
  0.5536485382764879  0.7742248828440643  0.0444082028078238
  0.7774848708028325  0.2260426429668199  0.9449186406725499
  0.8911957094958045  0.1124484131194673  0.0431671846486254
  0.7845123385383150  0.5498160637924131  0.9475628179029753
  0.8861007157183196  0.4462714746111978  0.0502577985745285
  0.7798598358948891  0.8895438875938448  0.9570320722004420
  0.8976838754994474  0.7839193604518939  0.0560433029084089
 
  0.00000000E+00  0.00000000E+00  0.00000000E+00
  0.00000000E+00  0.00000000E+00  0.00000000E+00
  0.00000000E+00  0.00000000E+00  0.00000000E+00
  0.00000000E+00  0.00000000E+00  0.00000000E+00
  0.00000000E+00  0.00000000E+00  0.00000000E+00
  0.00000000E+00  0.00000000E+00  0.00000000E+00
  0.00000000E+00  0.00000000E+00  0.00000000E+00
  0.00000000E+00  0.00000000E+00  0.00000000E+00
  0.00000000E+00  0.00000000E+00  0.00000000E+00
  0.00000000E+00  0.00000000E+00  0.00000000E+00
  0.00000000E+00  0.00000000E+00  0.00000000E+00
  0.00000000E+00  0.00000000E+00  0.00000000E+00
  0.00000000E+00  0.00000000E+00  0.00000000E+00
  0.00000000E+00  0.00000000E+00  0.00000000E+00
  0.00000000E+00  0.00000000E+00  0.00000000E+00
  0.00000000E+00  0.00000000E+00  0.00000000E+00
  0.00000000E+00  0.00000000E+00  0.00000000E+00
  0.00000000E+00  0.00000000E+00  0.00000000E+00
  0.00000000E+00  0.00000000E+00  0.00000000E+00
  0.00000000E+00  0.00000000E+00  0.00000000E+00
  0.00000000E+00  0.00000000E+00  0.00000000E+00
  0.00000000E+00  0.00000000E+00  0.00000000E+00
  0.00000000E+00  0.00000000E+00  0.00000000E+00
  0.00000000E+00  0.00000000E+00  0.00000000E+00
  0.00000000E+00  0.00000000E+00  0.00000000E+00
  0.00000000E+00  0.00000000E+00  0.00000000E+00
  0.00000000E+00  0.00000000E+00  0.00000000E+00
