crystal structure from VMoWS2 with Hexag
   1.00000000000000     
     8.3529361190035178    4.7916607337439459    0.0000000000000000
    -8.3799675047958555    4.8384710934249302    0.0000000000000000
     0.0000000000000000    0.0000000000000000   30.0000000000000000
   V    Mo   W    S 
     3     3     3    18
Direct
  0.0245998091732480 -0.0108430367458438  0.0014036364853893
  0.3084260784864497  0.6314610886469153 -0.0013344042815929
  0.6666968678809279  0.6457690866874805  0.0000022993250010
  0.3526379628767454  0.0354228458793302  0.0002705724776140
  0.9805375780525781  0.3494434117169468 -0.0002940098358092
  0.6665948038753861  0.3316521993181923 -0.0000046152025599
 -0.0136592287084011  0.6415174453688155 -0.0001271321651147
  0.3468537117781716  0.3216199262890972  0.0001305351538268
  0.6665194913808881  0.0351748566722724 -0.0000315842664545
  0.1047009389206858  0.2172215982608753  0.9560876015815519
  0.2220875181103218  0.1113910618883408  0.0552528462638835
  0.1111896352220973  0.5560319716296226  0.9447575920214208
  0.2154329883641352  0.4368967387248404  0.0496389033437694
  0.1177339951707789  0.8880369430669061  0.9503360031210493
  0.2284682016029240  0.7792042574855795  0.0439781871858316
  0.4515903719549544  0.2305708752797333  0.9434270591442442
  0.5562355290522211  0.1191448109873983  0.0567432094031078
  0.4455385454879467  0.5538265066162630  0.9499546870541540
  0.5554193203428734  0.4496221049649107  0.0537688545747450
  0.4422445253094319  0.8854573046560857  0.9522721099501058
  0.5526631499912313  0.7775362529464819  0.0417957893864162
  0.7770209964529350  0.2295971015262225  0.9432287266967183
  0.8910182256609972  0.1097624205797247  0.0476294616328446
  0.7777894782387824  0.5607646961623531  0.9462239341364379
  0.8816432898646352  0.4456230713280969  0.0565603924885261
  0.7806177536546713  0.8914919507227663  0.9581970745103647
  0.8876129152393644  0.7748169628181667  0.0501321690145236
 
  0.00000000E+00  0.00000000E+00  0.00000000E+00
  0.00000000E+00  0.00000000E+00  0.00000000E+00
  0.00000000E+00  0.00000000E+00  0.00000000E+00
  0.00000000E+00  0.00000000E+00  0.00000000E+00
  0.00000000E+00  0.00000000E+00  0.00000000E+00
  0.00000000E+00  0.00000000E+00  0.00000000E+00
  0.00000000E+00  0.00000000E+00  0.00000000E+00
  0.00000000E+00  0.00000000E+00  0.00000000E+00
  0.00000000E+00  0.00000000E+00  0.00000000E+00
  0.00000000E+00  0.00000000E+00  0.00000000E+00
  0.00000000E+00  0.00000000E+00  0.00000000E+00
  0.00000000E+00  0.00000000E+00  0.00000000E+00
  0.00000000E+00  0.00000000E+00  0.00000000E+00
  0.00000000E+00  0.00000000E+00  0.00000000E+00
  0.00000000E+00  0.00000000E+00  0.00000000E+00
  0.00000000E+00  0.00000000E+00  0.00000000E+00
  0.00000000E+00  0.00000000E+00  0.00000000E+00
  0.00000000E+00  0.00000000E+00  0.00000000E+00
  0.00000000E+00  0.00000000E+00  0.00000000E+00
  0.00000000E+00  0.00000000E+00  0.00000000E+00
  0.00000000E+00  0.00000000E+00  0.00000000E+00
  0.00000000E+00  0.00000000E+00  0.00000000E+00
  0.00000000E+00  0.00000000E+00  0.00000000E+00
  0.00000000E+00  0.00000000E+00  0.00000000E+00
  0.00000000E+00  0.00000000E+00  0.00000000E+00
  0.00000000E+00  0.00000000E+00  0.00000000E+00
  0.00000000E+00  0.00000000E+00  0.00000000E+00
