crystal structure from VMoWS2 with Hexag
   1.00000000000000     
     8.3476684143682967    4.8154084591563713    0.0000000000000000
    -8.3558554136913550    4.8295540028535617    0.0000000000000000
     0.0000000000000000    0.0000000000000000   30.0000000000000000
   V    Mo   W    S 
     3     3     3    18
Direct
  0.9925311217186060  0.3060006709804311 -0.0009139417197442
  0.6498140545413618  0.2950593547450504 -0.0021964173155721
  0.3573498676011579  0.6572619575058752  0.0012080450163696
 -0.0178347029386318 -0.0149998703642001 -0.0003535069018573
  0.6811478791811600 -0.0135859441347208  0.0004766055439790
  0.6749211824304336  0.6902879892428523 -0.0001135090632495
  0.0030247435532410  0.7027113699274814  0.0008268964384915
  0.3127200817033284  0.0196357122257160 -0.0011484473669510
  0.3543180929729156  0.3452126986684733  0.0011010613709489
  0.1130901971254247  0.2262303519682019  0.9498488295290637
  0.2150399107898035  0.1207428215971694  0.0529124126725019
  0.1115122220878794  0.5549336651945853  0.9582719109909840
  0.2204778587913599  0.4465637756572396  0.0495411107036579
  0.1074186345219857  0.8957865058059822  0.9433264413344498
  0.2274063314921954  0.7831795530580719  0.0477442240243886
  0.4493742027213924  0.2286763912150164  0.9452546463738462
  0.5467226603972495  0.1019169076774082  0.0491279865228629
  0.4501091278340058  0.5606586932568617  0.9472162716688405
  0.5705376491254407  0.4437714353219203  0.0484838785613251
  0.4351550553158894  0.8843466321773846  0.9558775032583584
  0.5518783000047753  0.7741520826957993  0.0552780688018876
  0.7770590735805857  0.2148078890522671  0.9485831781601950
  0.8877450587382939  0.1124973338416265  0.0540965372343736
  0.7771117140103744  0.5480241439711804  0.9535619468246948
  0.8868406744666141  0.4440252518509679  0.0422964164147599
  0.7783374570074162  0.8885280045592648  0.9430017915553588
  0.8844060046627206  0.7817890757796677  0.0566899585660437
 
  0.00000000E+00  0.00000000E+00  0.00000000E+00
  0.00000000E+00  0.00000000E+00  0.00000000E+00
  0.00000000E+00  0.00000000E+00  0.00000000E+00
  0.00000000E+00  0.00000000E+00  0.00000000E+00
  0.00000000E+00  0.00000000E+00  0.00000000E+00
  0.00000000E+00  0.00000000E+00  0.00000000E+00
  0.00000000E+00  0.00000000E+00  0.00000000E+00
  0.00000000E+00  0.00000000E+00  0.00000000E+00
  0.00000000E+00  0.00000000E+00  0.00000000E+00
  0.00000000E+00  0.00000000E+00  0.00000000E+00
  0.00000000E+00  0.00000000E+00  0.00000000E+00
  0.00000000E+00  0.00000000E+00  0.00000000E+00
  0.00000000E+00  0.00000000E+00  0.00000000E+00
  0.00000000E+00  0.00000000E+00  0.00000000E+00
  0.00000000E+00  0.00000000E+00  0.00000000E+00
  0.00000000E+00  0.00000000E+00  0.00000000E+00
  0.00000000E+00  0.00000000E+00  0.00000000E+00
  0.00000000E+00  0.00000000E+00  0.00000000E+00
  0.00000000E+00  0.00000000E+00  0.00000000E+00
  0.00000000E+00  0.00000000E+00  0.00000000E+00
  0.00000000E+00  0.00000000E+00  0.00000000E+00
  0.00000000E+00  0.00000000E+00  0.00000000E+00
  0.00000000E+00  0.00000000E+00  0.00000000E+00
  0.00000000E+00  0.00000000E+00  0.00000000E+00
  0.00000000E+00  0.00000000E+00  0.00000000E+00
  0.00000000E+00  0.00000000E+00  0.00000000E+00
  0.00000000E+00  0.00000000E+00  0.00000000E+00
