crystal structure from VMoWS2 with Hexag
   1.00000000000000     
     8.3412932076581949    4.7855605614451528    0.0000000000000000
    -8.3453052335621418    4.7925074492446713    0.0000000000000000
     0.0000000000000000    0.0000000000000000   30.0000000000000000
   V    Mo   W    S 
     3     3     3    18
Direct
  0.6787055793072362 -0.0228344108153410  0.0019925214377502
 -0.0172506067333386  0.6830845518392870 -0.0021628815193274
  1.0220251986601858  0.3191872933084830  0.0019164638855438
  0.3543002081814671  0.6493165824832776  0.0018721031957845
  0.6634836003729943  0.6655372450320229  0.0002160412319406
 -0.0150611982653542 -0.0209219944493647  0.0003439630150744
  0.3103338216282658  0.0181513958298189 -0.0029539285882219
  0.3532153869941205  0.3509944753755564  0.0000662273584225
  0.6521739858960588  0.3528410217157534 -0.0011977702193247
  0.1137752022733544  0.2206855758004157  0.9498823952739139
  0.2155159607576666  0.1163197371600218  0.0523099080038627
  0.1084051919038957  0.5536290940993785  0.9571904858261265
  0.2232752371840885  0.4404860221243648  0.0553453105546898
  0.1017144445851130  0.8830472128864377  0.9437471543500462
  0.2197989237618637  0.7772512049943302  0.0426690108738789
  0.4442452972023680  0.2273193794099580  0.9432498625595094
  0.5532097872480978  0.1077005286697652  0.0431247063209803
  0.4497804883188825  0.5552386963262900  0.9439219983062075
  0.5562672542353904  0.4493942860681438  0.0566712876050113
  0.4460776788950282  0.8920217854311658  0.9556242247530794
  0.5618203552251331  0.7816632968336261  0.0559136671534920
  0.7800897258136992  0.2216094696970483  0.9581155782058839
  0.8849658505656895  0.1089821369032414  0.0529673002499288
  0.7819998061843059  0.5595257261135622  0.9449082430914485
  0.8936471817325125  0.4472667765141804  0.0436570653957821
  0.7733239518489259  0.8887116594887199  0.9462510520122069
  0.8883761396593223  0.7720057046374185  0.0543579088662976
 
  0.00000000E+00  0.00000000E+00  0.00000000E+00
  0.00000000E+00  0.00000000E+00  0.00000000E+00
  0.00000000E+00  0.00000000E+00  0.00000000E+00
  0.00000000E+00  0.00000000E+00  0.00000000E+00
  0.00000000E+00  0.00000000E+00  0.00000000E+00
  0.00000000E+00  0.00000000E+00  0.00000000E+00
  0.00000000E+00  0.00000000E+00  0.00000000E+00
  0.00000000E+00  0.00000000E+00  0.00000000E+00
  0.00000000E+00  0.00000000E+00  0.00000000E+00
  0.00000000E+00  0.00000000E+00  0.00000000E+00
  0.00000000E+00  0.00000000E+00  0.00000000E+00
  0.00000000E+00  0.00000000E+00  0.00000000E+00
  0.00000000E+00  0.00000000E+00  0.00000000E+00
  0.00000000E+00  0.00000000E+00  0.00000000E+00
  0.00000000E+00  0.00000000E+00  0.00000000E+00
  0.00000000E+00  0.00000000E+00  0.00000000E+00
  0.00000000E+00  0.00000000E+00  0.00000000E+00
  0.00000000E+00  0.00000000E+00  0.00000000E+00
  0.00000000E+00  0.00000000E+00  0.00000000E+00
  0.00000000E+00  0.00000000E+00  0.00000000E+00
  0.00000000E+00  0.00000000E+00  0.00000000E+00
  0.00000000E+00  0.00000000E+00  0.00000000E+00
  0.00000000E+00  0.00000000E+00  0.00000000E+00
  0.00000000E+00  0.00000000E+00  0.00000000E+00
  0.00000000E+00  0.00000000E+00  0.00000000E+00
  0.00000000E+00  0.00000000E+00  0.00000000E+00
  0.00000000E+00  0.00000000E+00  0.00000000E+00
