crystal structure from VMoWS2 with Hexag
   1.00000000000000     
     8.3415339072524457    4.8162939803371208    0.0000000000000000
    -8.3610161759365411    4.8497326589541778    0.0000000000000000
     0.0000000000000000    0.0000000000000000   30.0000000000000000
   V    Mo   W    S 
     3     3     3    18
Direct
  0.3138547466044891  0.2947905167935023 -0.0026203956496514
  0.3102209376782558 -0.0200610894066194 -0.0000367572089974
  0.6837736671031360  0.3670102934005186  0.0017881066651165
 -0.0104410744133989 -0.0287739219985858 -0.0008690079799586
  0.0041872463259357  0.6710204209393412  0.0004458220000492
  0.3185445456350302  0.6838438480567423  0.0006684865913999
  1.0171481219541412  0.3769474571213247  0.0017717777899552
  0.6581587478407681 -0.0377506350097573 -0.0026106862706372
  0.6948190415240970  0.6844506740782677  0.0003160676719456
  0.1042081485987633  0.2219811388084214  0.9519626892143314
  0.2205297438687621  0.1035514285316386  0.0512344634349854
  0.1146015377114048  0.5664266684134882  0.9445639713596743
  0.2294465770270294  0.4464905901925649  0.0501308790738741
  0.1165651363863694  0.8908776585187577  0.9452296015826795
  0.2220804065054076  0.7869713224905629  0.0557262877077269
  0.4476208434286428  0.2180056084471755  0.9532651618049397
  0.5582683114629622  0.1128520473881272  0.0408905850785830
  0.4404306630329357  0.5479958798238265  0.9595465224527586
  0.5509983199293297  0.4409583106599720  0.0483987458555399
  0.4425045529458954  0.8945388393174805  0.9468473280075841
  0.5535234726850401  0.7701949755854158  0.0528742850800092
  0.7786919297756048  0.2241380743602631  0.9557702237980663
  0.8914071054124234  0.1179941924239565  0.0440785797172667
  0.7788387334973714  0.5559272283432689  0.9467789493568987
  0.8873731530319632  0.4501318391629694  0.0548600375561752
  0.7799070075836148  0.8816488090944199  0.9422159547565158
  0.8909528303010035  0.7760522779405298  0.0567722197531622
 
  0.00000000E+00  0.00000000E+00  0.00000000E+00
  0.00000000E+00  0.00000000E+00  0.00000000E+00
  0.00000000E+00  0.00000000E+00  0.00000000E+00
  0.00000000E+00  0.00000000E+00  0.00000000E+00
  0.00000000E+00  0.00000000E+00  0.00000000E+00
  0.00000000E+00  0.00000000E+00  0.00000000E+00
  0.00000000E+00  0.00000000E+00  0.00000000E+00
  0.00000000E+00  0.00000000E+00  0.00000000E+00
  0.00000000E+00  0.00000000E+00  0.00000000E+00
  0.00000000E+00  0.00000000E+00  0.00000000E+00
  0.00000000E+00  0.00000000E+00  0.00000000E+00
  0.00000000E+00  0.00000000E+00  0.00000000E+00
  0.00000000E+00  0.00000000E+00  0.00000000E+00
  0.00000000E+00  0.00000000E+00  0.00000000E+00
  0.00000000E+00  0.00000000E+00  0.00000000E+00
  0.00000000E+00  0.00000000E+00  0.00000000E+00
  0.00000000E+00  0.00000000E+00  0.00000000E+00
  0.00000000E+00  0.00000000E+00  0.00000000E+00
  0.00000000E+00  0.00000000E+00  0.00000000E+00
  0.00000000E+00  0.00000000E+00  0.00000000E+00
  0.00000000E+00  0.00000000E+00  0.00000000E+00
  0.00000000E+00  0.00000000E+00  0.00000000E+00
  0.00000000E+00  0.00000000E+00  0.00000000E+00
  0.00000000E+00  0.00000000E+00  0.00000000E+00
  0.00000000E+00  0.00000000E+00  0.00000000E+00
  0.00000000E+00  0.00000000E+00  0.00000000E+00
  0.00000000E+00  0.00000000E+00  0.00000000E+00
