crystal structure from VMoWS2 with Hexag
   1.00000000000000     
     8.3616503911546562    4.7915189078730585    0.0000000000000000
    -8.3743765959216265    4.8137200238200961    0.0000000000000000
     0.0000000000000000    0.0000000000000000   30.0000000000000000
   V    Mo   W    S 
     3     3     3    18
Direct
  0.6959180463356912  0.0127770308249313 -0.0007798816520032
  1.0152077408076374  0.3126018485105723 -0.0001620837410089
  0.3439964630301338  0.0326750749873652 -0.0006237799203854
  0.0104227174106172  0.0087743215790817 -0.0004636660042530
  0.3405687411196166  0.3298671927485141  0.0002498534908578
  0.6516856405188455  0.3500131739771468 -0.0011985914201595
 -0.0252985223561916  0.6633043780811660 -0.0006299644729589
  0.2946926185398596  0.6433041059269309  0.0022039246778441
  0.6780327021038666  0.6500365450606274  0.0013577741947529
  0.1159008481954862  0.2224545241509789  0.9461976454243347
  0.2293628301607396  0.1122320250933708  0.0534883127493797
  0.0958309765333691  0.5384350511417723  0.9486400457105275
  0.2141050523679112  0.4336364409501755  0.0539116117153968
  0.1198601050259237  0.8883871463463692  0.9493501060900902
  0.2176764845719883  0.7879739018034002  0.0481548895742040
  0.4417005934905442  0.2208372708533180  0.9444725235990428
  0.5563915564415308  0.1134921903209359  0.0475879375510594
  0.4456025662665000  0.5650427859338474  0.9517922393236949
  0.5527470861408982  0.4470246952823130  0.0563811791499684
  0.4469614148155647  0.8921057457065266  0.9566988495646338
  0.5515962558995001  0.7770330145501062  0.0450547959564753
  0.7835756738272697  0.2247689163341434  0.9528605968908940
  0.8933634607154968  0.1121099048416406  0.0529073655658754
  0.7725146519365236  0.5556484621829850  0.9422098202729320
  0.8885008140926808  0.4354993468718825  0.0456734686402862
  0.7784144783308959  0.8874222141831412  0.9504262377976429
  0.8888834571140884  0.7807571452342915  0.0542386884708972
 
  0.00000000E+00  0.00000000E+00  0.00000000E+00
  0.00000000E+00  0.00000000E+00  0.00000000E+00
  0.00000000E+00  0.00000000E+00  0.00000000E+00
  0.00000000E+00  0.00000000E+00  0.00000000E+00
  0.00000000E+00  0.00000000E+00  0.00000000E+00
  0.00000000E+00  0.00000000E+00  0.00000000E+00
  0.00000000E+00  0.00000000E+00  0.00000000E+00
  0.00000000E+00  0.00000000E+00  0.00000000E+00
  0.00000000E+00  0.00000000E+00  0.00000000E+00
  0.00000000E+00  0.00000000E+00  0.00000000E+00
  0.00000000E+00  0.00000000E+00  0.00000000E+00
  0.00000000E+00  0.00000000E+00  0.00000000E+00
  0.00000000E+00  0.00000000E+00  0.00000000E+00
  0.00000000E+00  0.00000000E+00  0.00000000E+00
  0.00000000E+00  0.00000000E+00  0.00000000E+00
  0.00000000E+00  0.00000000E+00  0.00000000E+00
  0.00000000E+00  0.00000000E+00  0.00000000E+00
  0.00000000E+00  0.00000000E+00  0.00000000E+00
  0.00000000E+00  0.00000000E+00  0.00000000E+00
  0.00000000E+00  0.00000000E+00  0.00000000E+00
  0.00000000E+00  0.00000000E+00  0.00000000E+00
  0.00000000E+00  0.00000000E+00  0.00000000E+00
  0.00000000E+00  0.00000000E+00  0.00000000E+00
  0.00000000E+00  0.00000000E+00  0.00000000E+00
  0.00000000E+00  0.00000000E+00  0.00000000E+00
  0.00000000E+00  0.00000000E+00  0.00000000E+00
  0.00000000E+00  0.00000000E+00  0.00000000E+00
