crystal structure from VMoWS2 with Hexag
   1.00000000000000     
     8.3210050545206222    4.8314543948154638    0.0000000000000000
    -8.2941449212783738    4.7849814204478562    0.0000000000000000
     0.0000000000000000    0.0000000000000000   30.0000000000000000
   V    Mo   W    S 
     3     3     3    18
Direct
  0.3689193710571966  0.3552860868198218 -0.0015848432549203
  0.3683742867079823  0.0121338230918472 -0.0019934398819137
  0.9667717028731974  0.3164236124870277  0.0020075060467592
  0.6729924336673297  0.3185703842290761 -0.0004138869974754
  0.3714677909998613  0.6876662003848087 -0.0017648473766373
  0.6645724643671537 -0.0033071778196110 -0.0002063973493888
 -0.0342828660327629 -0.0146860122456800  0.0011533432904652
 -0.0409997220683295  0.6438636600745264  0.0027526439756029
  0.6682466842082330  0.6861563063906888  0.0000142986730767
  0.1129461987378056  0.2266384148552781  0.9562359139171692
  0.2247079481490330  0.1129412509667905  0.0419679093278070
  0.1095121791379935  0.5534525651043111  0.9571399521097247
  0.2213161551799206  0.4419619039698764  0.0430539487624802
  0.1122422152281488  0.8868260375521860  0.9567454127843112
  0.2205687403445308  0.7796434019216697  0.0443825872934999
  0.4426161991188383  0.2186089671576313  0.9471956672163260
  0.5516392541368803  0.1070669318087277  0.0537086726470964
  0.4486684715668812  0.5558733556888167  0.9448628226876633
  0.5598670501194649  0.4469784780341697  0.0502378312064496
  0.4469087046226417  0.8950333535420950  0.9441114268125870
  0.5611369411795173  0.7833009656170283  0.0561668479811775
  0.7830166731896383  0.2215330699965282  0.9455702187398675
  0.8893175381864487  0.1156102226603899  0.0549937044274308
  0.7654541078140342  0.5488123211819330  0.9475916358512657
  0.8858582319486079  0.4355316032587646  0.0560975251581438
  0.7729884966094049  0.8889911948435500  0.9433252777642976
  0.8833872023873570  0.7773035319052811  0.0566481673871318
 
  0.00000000E+00  0.00000000E+00  0.00000000E+00
  0.00000000E+00  0.00000000E+00  0.00000000E+00
  0.00000000E+00  0.00000000E+00  0.00000000E+00
  0.00000000E+00  0.00000000E+00  0.00000000E+00
  0.00000000E+00  0.00000000E+00  0.00000000E+00
  0.00000000E+00  0.00000000E+00  0.00000000E+00
  0.00000000E+00  0.00000000E+00  0.00000000E+00
  0.00000000E+00  0.00000000E+00  0.00000000E+00
  0.00000000E+00  0.00000000E+00  0.00000000E+00
  0.00000000E+00  0.00000000E+00  0.00000000E+00
  0.00000000E+00  0.00000000E+00  0.00000000E+00
  0.00000000E+00  0.00000000E+00  0.00000000E+00
  0.00000000E+00  0.00000000E+00  0.00000000E+00
  0.00000000E+00  0.00000000E+00  0.00000000E+00
  0.00000000E+00  0.00000000E+00  0.00000000E+00
  0.00000000E+00  0.00000000E+00  0.00000000E+00
  0.00000000E+00  0.00000000E+00  0.00000000E+00
  0.00000000E+00  0.00000000E+00  0.00000000E+00
  0.00000000E+00  0.00000000E+00  0.00000000E+00
  0.00000000E+00  0.00000000E+00  0.00000000E+00
  0.00000000E+00  0.00000000E+00  0.00000000E+00
  0.00000000E+00  0.00000000E+00  0.00000000E+00
  0.00000000E+00  0.00000000E+00  0.00000000E+00
  0.00000000E+00  0.00000000E+00  0.00000000E+00
  0.00000000E+00  0.00000000E+00  0.00000000E+00
  0.00000000E+00  0.00000000E+00  0.00000000E+00
  0.00000000E+00  0.00000000E+00  0.00000000E+00
