crystal structure from VMoWS2 with Hexag
   1.00000000000000     
     8.2981276762023199    4.7867433543155933    0.0000000000000000
    -8.3242776040560198    4.8319798544421300    0.0000000000000000
     0.0000000000000000    0.0000000000000000   30.0000000000000000
   V    Mo   W    S 
     3     3     3    18
Direct
  0.3504106680324256  0.6999101677687539  0.0019557282170895
  0.3107350286270437  0.2974653258456717 -0.0014815102464702
  0.6544986307101536  0.2982367845470513 -0.0019170842562026
  0.6697593252660426  0.0019926274568332 -0.0001964688696545
  0.9788512339593881  0.2950325525352564 -0.0017277988825325
  0.3481587248708961 -0.0066206153985601 -0.0004480179668169
 -0.0197792638809559 -0.0016139153328358  0.0000314022682841
  0.0231915346891776  0.7075498548449130  0.0026720102729020
  0.6807303963518276  0.7008081993227826  0.0010787647974250
  0.1106071925595360  0.2178514611629285  0.9449070698703174
  0.2192734003083230  0.1061183277545878  0.0501977650197561
  0.1133064065297003  0.5570142413335691  0.9571467278265766
  0.2246063677060528  0.4452487890816963  0.0430410178919194
  0.1179363680781514  0.9013755546289961  0.9476184357371470
  0.2311485441974051  0.7804606359230435  0.0560586993338284
  0.4480443321241546  0.2241866370735712  0.9473480636855750
  0.5593605142652669  0.1148141108706905  0.0537356793749039
  0.4398179051562930  0.5536644436085529  0.9561568632682123
  0.5533486185538813  0.4417950176255888  0.0419135369176363
  0.4452947308077558  0.8837542418506880  0.9455140289260449
  0.5509121232440325  0.7772046370940110  0.0549941020909309
  0.7715497532737929  0.2198465343189700  0.9441752530355277
  0.8830621442350280  0.1052128036939891  0.0562058858885968
  0.7797671479715838  0.5544041027008592  0.9568365125202128
  0.8870273180778847  0.4460195064526858  0.0443778176326932
  0.7776049078251591  0.8938309716108336  0.9433224695952440
  0.8889903998969753  0.7826514551024445  0.0564829452508460
 
  0.00000000E+00  0.00000000E+00  0.00000000E+00
  0.00000000E+00  0.00000000E+00  0.00000000E+00
  0.00000000E+00  0.00000000E+00  0.00000000E+00
  0.00000000E+00  0.00000000E+00  0.00000000E+00
  0.00000000E+00  0.00000000E+00  0.00000000E+00
  0.00000000E+00  0.00000000E+00  0.00000000E+00
  0.00000000E+00  0.00000000E+00  0.00000000E+00
  0.00000000E+00  0.00000000E+00  0.00000000E+00
  0.00000000E+00  0.00000000E+00  0.00000000E+00
  0.00000000E+00  0.00000000E+00  0.00000000E+00
  0.00000000E+00  0.00000000E+00  0.00000000E+00
  0.00000000E+00  0.00000000E+00  0.00000000E+00
  0.00000000E+00  0.00000000E+00  0.00000000E+00
  0.00000000E+00  0.00000000E+00  0.00000000E+00
  0.00000000E+00  0.00000000E+00  0.00000000E+00
  0.00000000E+00  0.00000000E+00  0.00000000E+00
  0.00000000E+00  0.00000000E+00  0.00000000E+00
  0.00000000E+00  0.00000000E+00  0.00000000E+00
  0.00000000E+00  0.00000000E+00  0.00000000E+00
  0.00000000E+00  0.00000000E+00  0.00000000E+00
  0.00000000E+00  0.00000000E+00  0.00000000E+00
  0.00000000E+00  0.00000000E+00  0.00000000E+00
  0.00000000E+00  0.00000000E+00  0.00000000E+00
  0.00000000E+00  0.00000000E+00  0.00000000E+00
  0.00000000E+00  0.00000000E+00  0.00000000E+00
  0.00000000E+00  0.00000000E+00  0.00000000E+00
  0.00000000E+00  0.00000000E+00  0.00000000E+00
