crystal structure from VMoWS2 with Hexag
   1.00000000000000     
     8.3733958119043113    4.8456658581319259    0.0000000000000000
    -8.3713019265390294    4.8421344509469550    0.0000000000000000
     0.0000000000000000    0.0000000000000000   30.0000000000000000
   V    Mo   W    S 
     3     3     3    18
Direct
  0.3512402660685267  0.0348615117244937  0.0006980545645138
  0.0248691593178764  0.0243647351504245 -0.0002340397130886
  1.0366292533950805  0.3515870712916780 -0.0006059324906712
  0.3393459015269725  0.3408665052676971 -0.0000078437307645
  0.3529309537878514  0.6525137622935764  0.0002303248117699
  0.6454670158544419  0.6468041301830465 -0.0000529411080692
 -0.0393389621409884  0.6501433583968457  0.0017813534751421
  0.6498549509322092 -0.0399139828529219 -0.0016645577306005
  0.6527908633649224  0.3521652695966093 -0.0000667078296087
  0.1104278800149265  0.2247947955089958  0.9483223003864807
  0.2239515615936232  0.1099817071990327  0.0513324997253406
  0.1098754385297576  0.5562862185495375  0.9516363250044305
  0.2215157015138143  0.4426090606301946  0.0545440650785693
  0.1151210162268963  0.8934338064147868  0.9537945981903767
  0.2201022788541523  0.7798735836668245  0.0403982775880841
  0.4430392236726045  0.2211537457753951  0.9457480795163450
  0.5562427094147984  0.1101172494906909  0.0485357320796365
  0.4424769553598764  0.5495077641313552  0.9431359296402287
  0.5497770170994091  0.4425734380772142  0.0568500525299951
  0.4369318085146388  0.8854251761814906  0.9502960003109160
  0.5544756484283224  0.7711979555755697  0.0561895840796790
  0.7799118137098844  0.2208988003329273  0.9597205747208704
  0.8941905594370596  0.1154772023084824  0.0458660044863671
  0.7702844671683422  0.5533126550046106  0.9440110921474829
  0.8847845620843019  0.4361737859573134  0.0498006940879323
  0.7857987057436059  0.8849936582218646  0.9503851737386351
  0.8855177039640720  0.7870114893998351  0.0493552056399968
 
  0.00000000E+00  0.00000000E+00  0.00000000E+00
  0.00000000E+00  0.00000000E+00  0.00000000E+00
  0.00000000E+00  0.00000000E+00  0.00000000E+00
  0.00000000E+00  0.00000000E+00  0.00000000E+00
  0.00000000E+00  0.00000000E+00  0.00000000E+00
  0.00000000E+00  0.00000000E+00  0.00000000E+00
  0.00000000E+00  0.00000000E+00  0.00000000E+00
  0.00000000E+00  0.00000000E+00  0.00000000E+00
  0.00000000E+00  0.00000000E+00  0.00000000E+00
  0.00000000E+00  0.00000000E+00  0.00000000E+00
  0.00000000E+00  0.00000000E+00  0.00000000E+00
  0.00000000E+00  0.00000000E+00  0.00000000E+00
  0.00000000E+00  0.00000000E+00  0.00000000E+00
  0.00000000E+00  0.00000000E+00  0.00000000E+00
  0.00000000E+00  0.00000000E+00  0.00000000E+00
  0.00000000E+00  0.00000000E+00  0.00000000E+00
  0.00000000E+00  0.00000000E+00  0.00000000E+00
  0.00000000E+00  0.00000000E+00  0.00000000E+00
  0.00000000E+00  0.00000000E+00  0.00000000E+00
  0.00000000E+00  0.00000000E+00  0.00000000E+00
  0.00000000E+00  0.00000000E+00  0.00000000E+00
  0.00000000E+00  0.00000000E+00  0.00000000E+00
  0.00000000E+00  0.00000000E+00  0.00000000E+00
  0.00000000E+00  0.00000000E+00  0.00000000E+00
  0.00000000E+00  0.00000000E+00  0.00000000E+00
  0.00000000E+00  0.00000000E+00  0.00000000E+00
  0.00000000E+00  0.00000000E+00  0.00000000E+00
