crystal structure from VMoWS2 with Hexag
   1.00000000000000     
     8.3452280641018231    4.7930273072274208    0.0000000000000000
    -8.3346678609262774    4.7746218473694384    0.0000000000000000
     0.0000000000000000    0.0000000000000000   30.0000000000000000
   V    Mo   W    S 
     3     3     3    18
Direct
  0.3573598194348708 -0.0096436608097335  0.0021151542326770
  0.6477222936017450  0.6840273265671047 -0.0024123628464760
 -0.0198960293910561  0.0119055233816683 -0.0016057128052946
  0.6628938628924492  0.0026381459002857 -0.0002190136250786
  0.3483657141614740  0.6796835865116384  0.0000145493983826
  0.6875384040693555  0.3151400277049471  0.0022117525456468
  0.9827677469668283  0.3225953253651931 -0.0002024744677647
  0.0113148440828706  0.6397480022701858  0.0021852625878419
  0.3176860634992287  0.3566965144207906 -0.0022129135829953
  0.1047214493207451  0.2167638758452061  0.9455967753953982
  0.2219451315160490  0.1111308256299249  0.0423967725041747
  0.1147585781149591  0.5497759938637459  0.9469160760151042
  0.2181381663837850  0.4503017152981480  0.0527647116104928
  0.1124727203083582  0.8893613289880135  0.9585518775021369
  0.2272544927174611  0.7838955632240711  0.0542943389998779
  0.4433162221685448  0.2215264543927666  0.9559480313350250
  0.5528460985755781  0.1060727063509768  0.0562389135803700
  0.4492833372908989  0.5647847843375243  0.9437958207649189
  0.5577933323084371  0.4481743873894788  0.0432402640616065
  0.4437332206635165  0.8937746235334160  0.9458208665088469
  0.5600357846004349  0.7787585395807011  0.0536295168464783
  0.7784286028838396  0.2168828100064876  0.9439149921403419
  0.8884759083273641  0.1078016064851649  0.0536567457822925
  0.7761909922820009  0.5563821817590717  0.9557570480409734
  0.8905310555247761  0.4368311968967756  0.0581603528766393
  0.7772279371728866  0.8874680820356108  0.9462492612755300
  0.8853087039595807  0.7757369865484169  0.0431932925228422
 
  0.00000000E+00  0.00000000E+00  0.00000000E+00
  0.00000000E+00  0.00000000E+00  0.00000000E+00
  0.00000000E+00  0.00000000E+00  0.00000000E+00
  0.00000000E+00  0.00000000E+00  0.00000000E+00
  0.00000000E+00  0.00000000E+00  0.00000000E+00
  0.00000000E+00  0.00000000E+00  0.00000000E+00
  0.00000000E+00  0.00000000E+00  0.00000000E+00
  0.00000000E+00  0.00000000E+00  0.00000000E+00
  0.00000000E+00  0.00000000E+00  0.00000000E+00
  0.00000000E+00  0.00000000E+00  0.00000000E+00
  0.00000000E+00  0.00000000E+00  0.00000000E+00
  0.00000000E+00  0.00000000E+00  0.00000000E+00
  0.00000000E+00  0.00000000E+00  0.00000000E+00
  0.00000000E+00  0.00000000E+00  0.00000000E+00
  0.00000000E+00  0.00000000E+00  0.00000000E+00
  0.00000000E+00  0.00000000E+00  0.00000000E+00
  0.00000000E+00  0.00000000E+00  0.00000000E+00
  0.00000000E+00  0.00000000E+00  0.00000000E+00
  0.00000000E+00  0.00000000E+00  0.00000000E+00
  0.00000000E+00  0.00000000E+00  0.00000000E+00
  0.00000000E+00  0.00000000E+00  0.00000000E+00
  0.00000000E+00  0.00000000E+00  0.00000000E+00
  0.00000000E+00  0.00000000E+00  0.00000000E+00
  0.00000000E+00  0.00000000E+00  0.00000000E+00
  0.00000000E+00  0.00000000E+00  0.00000000E+00
  0.00000000E+00  0.00000000E+00  0.00000000E+00
  0.00000000E+00  0.00000000E+00  0.00000000E+00
