crystal structure from VMoWS2 with Hexag
   1.00000000000000     
     8.3904674194216078    4.8423219525472190    0.0000000000000000
    -8.3817729161106698    4.8274160670639912    0.0000000000000000
     0.0000000000000000    0.0000000000000000   30.0000000000000000
   V    Mo   W    S 
     3     3     3    18
Direct
  0.6854906230790684  0.3150364669548868  0.0006149717531576
  0.3584946713927331 -0.0006676320232315  0.0004222023971589
  0.3673948276213326  0.6823041166762902 -0.0006284910029597
 -0.0200267623259957  0.0016110281730516 -0.0000094314662355
  0.6743147430888773  0.0014485714653053  0.0000081172403811
  0.9865142626963960  0.3001329815212152 -0.0001988066501879
 -0.0174568526350318  0.6893832086465836 -0.0017959809154715
  0.2937140514541788  0.3108012346088680  0.0015754191860699
  0.6848619746713013  0.6992362979794102 -0.0000395590532240
  0.1048626122500219  0.2170060652738951  0.9437497488715841
  0.2184471906405898  0.0991629082682711  0.0494757436312212
  0.1127029540305473  0.5599710700326941  0.9595226240901630
  0.2189844376395803  0.4479834999872319  0.0499885992214361
  0.1207120968788692  0.9017704240798589  0.9507998622822574
  0.2261893628188331  0.7777011292068887  0.0461772932662907
  0.4492986176209466  0.2208284368187531  0.9542446030017788
  0.5589461468097189  0.1147554714387455  0.0518190605016128
  0.4429686719396034  0.5532548096870812  0.9512899995624650
  0.5544951520261234  0.4409157097730123  0.0402211727053619
  0.4430217253625739  0.8849601042412620  0.9487911128935149
  0.5539330668684913  0.7778824697860334  0.0542171525495119
  0.7764428351025091  0.2211523886669446  0.9454935886300297
  0.8829674368683259  0.1073123237380853  0.0568556244498979
  0.7690194184563582  0.5511855405692905  0.9501017035225300
  0.8901587040895059  0.4470010816851634  0.0483505896698086
  0.7759289153356654  0.8928068632587167  0.9430398294206447
  0.8858335696558572  0.7832778829632688  0.0559131494411939
 
  0.00000000E+00  0.00000000E+00  0.00000000E+00
  0.00000000E+00  0.00000000E+00  0.00000000E+00
  0.00000000E+00  0.00000000E+00  0.00000000E+00
  0.00000000E+00  0.00000000E+00  0.00000000E+00
  0.00000000E+00  0.00000000E+00  0.00000000E+00
  0.00000000E+00  0.00000000E+00  0.00000000E+00
  0.00000000E+00  0.00000000E+00  0.00000000E+00
  0.00000000E+00  0.00000000E+00  0.00000000E+00
  0.00000000E+00  0.00000000E+00  0.00000000E+00
  0.00000000E+00  0.00000000E+00  0.00000000E+00
  0.00000000E+00  0.00000000E+00  0.00000000E+00
  0.00000000E+00  0.00000000E+00  0.00000000E+00
  0.00000000E+00  0.00000000E+00  0.00000000E+00
  0.00000000E+00  0.00000000E+00  0.00000000E+00
  0.00000000E+00  0.00000000E+00  0.00000000E+00
  0.00000000E+00  0.00000000E+00  0.00000000E+00
  0.00000000E+00  0.00000000E+00  0.00000000E+00
  0.00000000E+00  0.00000000E+00  0.00000000E+00
  0.00000000E+00  0.00000000E+00  0.00000000E+00
  0.00000000E+00  0.00000000E+00  0.00000000E+00
  0.00000000E+00  0.00000000E+00  0.00000000E+00
  0.00000000E+00  0.00000000E+00  0.00000000E+00
  0.00000000E+00  0.00000000E+00  0.00000000E+00
  0.00000000E+00  0.00000000E+00  0.00000000E+00
  0.00000000E+00  0.00000000E+00  0.00000000E+00
  0.00000000E+00  0.00000000E+00  0.00000000E+00
  0.00000000E+00  0.00000000E+00  0.00000000E+00
