crystal structure from VMoWS2 with Hexag
   1.00000000000000     
     8.2961858322915241    4.8161779273566250    0.0000000000000000
    -8.2732549463395308    4.7764681037584626    0.0000000000000000
     0.0000000000000000    0.0000000000000000   30.0000000000000000
   V    Mo   W    S 
     3     3     3    18
Direct
  0.3347602394657749  0.6664455448537663  0.0005353278415807
  0.3339551882851011  0.0042445521730325  0.0001090280992476
  0.6801742362106445  0.6706450181511734 -0.0003418475077437
 -0.0177222364304233  0.6522026850930123  0.0000304399391318
  0.6871163401705979  0.3343938825213286 -0.0003949543344961
  0.6849669185781924  0.0232299493733716 -0.0001595620617308
 -0.0048035704627014 -0.0046735998560091 -0.0000426329945583
  0.9782586190868916  0.3309818643206366  0.0001806579327815
  0.3272873148995807  0.3243103989940873  0.0002024721625593
  0.1069541535354274  0.2226881969420150  0.9488365891556830
  0.2223961555080262  0.1045385714879402  0.0520955145353690
  0.1133422205231832  0.5561801962240763  0.9491881910130683
  0.2196732463672597  0.4460750894176331  0.0498208847714125
  0.1140269293397441  0.8881169994837282  0.9502070196902076
  0.2247107279865781  0.7792174074141560  0.0487410285948038
  0.4443586200386901  0.2178801078663089  0.9496552998616874
  0.5532146265785010  0.1110862240081970  0.0515421785501418
  0.4474769839645422  0.5590210222616734  0.9511431670370992
  0.5580197698936146  0.4468901894192108  0.0489314704148375
  0.4422100891000710  0.8882214225500805  0.9516731774460393
  0.5578745110611169  0.7781893348803285  0.0473337818646669
  0.7799126130322463  0.2250252697110949  0.9426941516734794
  0.8932726577403510  0.1149078121928429  0.0542550678421522
  0.7719000276472072  0.5555136526848664  0.9464183605012372
  0.8887403961487476  0.4445905151280706  0.0562905295750730
  0.7745458561848193  0.8839211140333046  0.9483439743549812
  0.8815918189832153  0.7743710321476610  0.0527105832412893
 
  0.00000000E+00  0.00000000E+00  0.00000000E+00
  0.00000000E+00  0.00000000E+00  0.00000000E+00
  0.00000000E+00  0.00000000E+00  0.00000000E+00
  0.00000000E+00  0.00000000E+00  0.00000000E+00
  0.00000000E+00  0.00000000E+00  0.00000000E+00
  0.00000000E+00  0.00000000E+00  0.00000000E+00
  0.00000000E+00  0.00000000E+00  0.00000000E+00
  0.00000000E+00  0.00000000E+00  0.00000000E+00
  0.00000000E+00  0.00000000E+00  0.00000000E+00
  0.00000000E+00  0.00000000E+00  0.00000000E+00
  0.00000000E+00  0.00000000E+00  0.00000000E+00
  0.00000000E+00  0.00000000E+00  0.00000000E+00
  0.00000000E+00  0.00000000E+00  0.00000000E+00
  0.00000000E+00  0.00000000E+00  0.00000000E+00
  0.00000000E+00  0.00000000E+00  0.00000000E+00
  0.00000000E+00  0.00000000E+00  0.00000000E+00
  0.00000000E+00  0.00000000E+00  0.00000000E+00
  0.00000000E+00  0.00000000E+00  0.00000000E+00
  0.00000000E+00  0.00000000E+00  0.00000000E+00
  0.00000000E+00  0.00000000E+00  0.00000000E+00
  0.00000000E+00  0.00000000E+00  0.00000000E+00
  0.00000000E+00  0.00000000E+00  0.00000000E+00
  0.00000000E+00  0.00000000E+00  0.00000000E+00
  0.00000000E+00  0.00000000E+00  0.00000000E+00
  0.00000000E+00  0.00000000E+00  0.00000000E+00
  0.00000000E+00  0.00000000E+00  0.00000000E+00
  0.00000000E+00  0.00000000E+00  0.00000000E+00
