crystal structure from VMoWS2 with Hexag
   1.00000000000000     
     8.3380700244611550    4.8145060742716002    0.0000000000000000
    -8.3360827106610156    4.8110653414571800    0.0000000000000000
     0.0000000000000000    0.0000000000000000   30.0000000000000000
   V    Mo   W    S 
     3     3     3    18
Direct
  0.3030876326363983  0.6679149121138536 -0.0000751368723923
  0.7019018855134315  0.3504349913590405 -0.0001184938385953
  0.0180448520032285 -0.0174670970804417  0.0002519781774442
  0.3123599477668793 -0.0148275952476745  0.0005489891691907
  0.0059787700067194  0.6665206048586427  0.0000300862926271
  0.9936779160606350  0.3485159552374645 -0.0005115510400360
  0.2979298561811936  0.3021320181487414  0.0000454456034981
  0.6601235870043802  0.0298590612216258 -0.0002253850465486
  0.7032035719879079  0.6663425089136710  0.0000236943808022
  0.0941795277632212  0.2047339732313890  0.9488152567790745
  0.2122779467690345  0.1032597810257872  0.0555508805545538
  0.1157531555089523  0.5573604007083892  0.9448118314625779
  0.2230116531942814  0.4496968411433443  0.0505707140999463
  0.1085824024760353  0.8848607913455068  0.9451590572061742
  0.2248454960042574  0.7759975436672710  0.0552545434115567
  0.4511361754027082  0.2275606787893674  0.9547319939801837
  0.5558208777750220  0.1284270807835002  0.0513473010211016
  0.4426077965638103  0.5556275322839890  0.9579374237702568
  0.5570995805946121  0.4405888569829722  0.0470836679963343
  0.4396073400505473  0.8837418232883169  0.9489797395777650
  0.5537496288537160  0.7775534426984777  0.0421851224083468
  0.7757805093092146  0.2298400811446142  0.9445460256913637
  0.8896679588592299  0.1053985387914125  0.0449505119535846
  0.7836590544698918  0.5490093714242551  0.9450573457209375
  0.8902976479361127  0.4483860316178675  0.0549287756447775
  0.7829174526169822  0.8927603302880285  0.9531127074754882
  0.9009122301285778  0.7839859947381642  0.0550073736199818
 
  0.00000000E+00  0.00000000E+00  0.00000000E+00
  0.00000000E+00  0.00000000E+00  0.00000000E+00
  0.00000000E+00  0.00000000E+00  0.00000000E+00
  0.00000000E+00  0.00000000E+00  0.00000000E+00
  0.00000000E+00  0.00000000E+00  0.00000000E+00
  0.00000000E+00  0.00000000E+00  0.00000000E+00
  0.00000000E+00  0.00000000E+00  0.00000000E+00
  0.00000000E+00  0.00000000E+00  0.00000000E+00
  0.00000000E+00  0.00000000E+00  0.00000000E+00
  0.00000000E+00  0.00000000E+00  0.00000000E+00
  0.00000000E+00  0.00000000E+00  0.00000000E+00
  0.00000000E+00  0.00000000E+00  0.00000000E+00
  0.00000000E+00  0.00000000E+00  0.00000000E+00
  0.00000000E+00  0.00000000E+00  0.00000000E+00
  0.00000000E+00  0.00000000E+00  0.00000000E+00
  0.00000000E+00  0.00000000E+00  0.00000000E+00
  0.00000000E+00  0.00000000E+00  0.00000000E+00
  0.00000000E+00  0.00000000E+00  0.00000000E+00
  0.00000000E+00  0.00000000E+00  0.00000000E+00
  0.00000000E+00  0.00000000E+00  0.00000000E+00
  0.00000000E+00  0.00000000E+00  0.00000000E+00
  0.00000000E+00  0.00000000E+00  0.00000000E+00
  0.00000000E+00  0.00000000E+00  0.00000000E+00
  0.00000000E+00  0.00000000E+00  0.00000000E+00
  0.00000000E+00  0.00000000E+00  0.00000000E+00
  0.00000000E+00  0.00000000E+00  0.00000000E+00
  0.00000000E+00  0.00000000E+00  0.00000000E+00
