crystal structure from VMoWS2 with Hexag
   1.00000000000000     
     8.4020833759488660    4.8328249176741691    0.0000000000000000
    -8.3950555994275060    4.8210170946699478    0.0000000000000000
     0.0000000000000000    0.0000000000000000   30.0000000000000000
   V    Mo   W    S 
     3     3     3    18
Direct
  0.0105130506031130 -0.0137766589789644  0.0006181973595967
  1.0282908685648471  0.3294554105571523  0.0004546593813403
  0.3532908421978533  0.6487767507980222  0.0004320906621754
  0.3497316644557324  0.3428056932869187 -0.0002679722951904
  0.6460122166009822  0.3361795898601672 -0.0003408698086141
  0.6657463909725532  0.6424569595117476  0.0001082295296070
 -0.0378171152344354  0.6453077059305298  0.0009006656308889
  0.3494232392377287  0.0320640752230301 -0.0003632674080546
  0.6444927352468687  0.0219547737191220 -0.0015788653126724
  0.1094789152513199  0.2136713472876176  0.9508745667434247
  0.2167289747523619  0.1122227276518273  0.0518877404626920
  0.1169500423710907  0.5540477087624729  0.9547269413222248
  0.2290767249596281  0.4495093040348419  0.0518466130970204
  0.1062940979007078  0.8839815245195989  0.9504717649197930
  0.2221138097575025  0.7745359876420058  0.0400387674172885
  0.4423477774171808  0.2268410739740091  0.9427785290564100
  0.5500872110758952  0.1193184410105864  0.0557784206954534
  0.4485345782173745  0.5585977405826673  0.9455923942978263
  0.5540442416103577  0.4456918651763666  0.0567008224281273
  0.4337126749453191  0.8852698222682137  0.9496475751456603
  0.5599309883896680  0.7838211082793077  0.0480758482145376
  0.7886895768111254  0.2358425983297040  0.9515692180537965
  0.8897823506324380  0.1106705176034257  0.0464191997228139
  0.7727871097719227  0.5504152886160261  0.9432864438089985
  0.8848866915171649  0.4342601396466620  0.0494773830722681
  0.7753541509706546  0.8961966376500257  0.9575960335921838
  0.8877306444400273  0.7780963205344904  0.0532687694103866
 
  0.00000000E+00  0.00000000E+00  0.00000000E+00
  0.00000000E+00  0.00000000E+00  0.00000000E+00
  0.00000000E+00  0.00000000E+00  0.00000000E+00
  0.00000000E+00  0.00000000E+00  0.00000000E+00
  0.00000000E+00  0.00000000E+00  0.00000000E+00
  0.00000000E+00  0.00000000E+00  0.00000000E+00
  0.00000000E+00  0.00000000E+00  0.00000000E+00
  0.00000000E+00  0.00000000E+00  0.00000000E+00
  0.00000000E+00  0.00000000E+00  0.00000000E+00
  0.00000000E+00  0.00000000E+00  0.00000000E+00
  0.00000000E+00  0.00000000E+00  0.00000000E+00
  0.00000000E+00  0.00000000E+00  0.00000000E+00
  0.00000000E+00  0.00000000E+00  0.00000000E+00
  0.00000000E+00  0.00000000E+00  0.00000000E+00
  0.00000000E+00  0.00000000E+00  0.00000000E+00
  0.00000000E+00  0.00000000E+00  0.00000000E+00
  0.00000000E+00  0.00000000E+00  0.00000000E+00
  0.00000000E+00  0.00000000E+00  0.00000000E+00
  0.00000000E+00  0.00000000E+00  0.00000000E+00
  0.00000000E+00  0.00000000E+00  0.00000000E+00
  0.00000000E+00  0.00000000E+00  0.00000000E+00
  0.00000000E+00  0.00000000E+00  0.00000000E+00
  0.00000000E+00  0.00000000E+00  0.00000000E+00
  0.00000000E+00  0.00000000E+00  0.00000000E+00
  0.00000000E+00  0.00000000E+00  0.00000000E+00
  0.00000000E+00  0.00000000E+00  0.00000000E+00
  0.00000000E+00  0.00000000E+00  0.00000000E+00
