crystal structure from VMoWS2 with Hexag
   1.00000000000000     
     8.3646699394640631    4.8070310384493444    0.0000000000000000
    -8.3630156100027495    4.8041099984913478    0.0000000000000000
     0.0000000000000000    0.0000000000000000   30.0000000000000000
   V    Mo   W    S 
     3     3     3    18
Direct
  0.6470211540067946  0.6320896011522239 -0.0009139115503855
 -0.0159453209769116  0.6629297295994706  0.0015659207640682
  0.3573238565966418  0.0061899095239618 -0.0000286924841122
  0.3312458339404544  0.6458205467009952  0.0001764335989791
  0.6523107654779068  0.3185475639994728 -0.0002601777998462
  0.3214383046667449  0.3440391525085938  0.0001525734417862
  0.0149367817182405  0.0274793776560920 -0.0007074633484577
  1.0227387306651183  0.3317174108086204  0.0004600360459383
  0.6632022049618976  0.0229991929630596 -0.0004424690871096
  0.1158245325274025  0.2278801667049717  0.9429655971427774
  0.2253169787030515  0.1106505462015442  0.0505080549799839
  0.1096029513861207  0.5577258507516243  0.9499533148971279
  0.2225518669802621  0.4470321482301804  0.0569445737612357
  0.1161009338297352  0.8896802019189309  0.9531442345661173
  0.2206756731304836  0.7794785052738239  0.0470098305292543
  0.4361265637268456  0.2151730056361119  0.9494477586981556
  0.5490307138136474  0.1072577857266367  0.0553656815002258
  0.4488627432564350  0.5550213043082480  0.9454190437178644
  0.5518394328690243  0.4423059026683259  0.0526129823282108
  0.4437883768664926  0.8890625930127518  0.9491703693761590
  0.5647974008541082  0.7778645444529977  0.0472735622742608
  0.7860644728266653  0.2308364555726754  0.9478006322293754
  0.8890124835146972  0.1153193521465805  0.0530827480602678
  0.7765334949806935  0.5551102064515602  0.9491182553528557
  0.8933654162404918  0.4461854301607814  0.0487065966218695
  0.7727998994515447  0.8825662150451465  0.9550248066544391
  0.8816482074223829  0.7772517543021982  0.0464496069289488
 
  0.00000000E+00  0.00000000E+00  0.00000000E+00
  0.00000000E+00  0.00000000E+00  0.00000000E+00
  0.00000000E+00  0.00000000E+00  0.00000000E+00
  0.00000000E+00  0.00000000E+00  0.00000000E+00
  0.00000000E+00  0.00000000E+00  0.00000000E+00
  0.00000000E+00  0.00000000E+00  0.00000000E+00
  0.00000000E+00  0.00000000E+00  0.00000000E+00
  0.00000000E+00  0.00000000E+00  0.00000000E+00
  0.00000000E+00  0.00000000E+00  0.00000000E+00
  0.00000000E+00  0.00000000E+00  0.00000000E+00
  0.00000000E+00  0.00000000E+00  0.00000000E+00
  0.00000000E+00  0.00000000E+00  0.00000000E+00
  0.00000000E+00  0.00000000E+00  0.00000000E+00
  0.00000000E+00  0.00000000E+00  0.00000000E+00
  0.00000000E+00  0.00000000E+00  0.00000000E+00
  0.00000000E+00  0.00000000E+00  0.00000000E+00
  0.00000000E+00  0.00000000E+00  0.00000000E+00
  0.00000000E+00  0.00000000E+00  0.00000000E+00
  0.00000000E+00  0.00000000E+00  0.00000000E+00
  0.00000000E+00  0.00000000E+00  0.00000000E+00
  0.00000000E+00  0.00000000E+00  0.00000000E+00
  0.00000000E+00  0.00000000E+00  0.00000000E+00
  0.00000000E+00  0.00000000E+00  0.00000000E+00
  0.00000000E+00  0.00000000E+00  0.00000000E+00
  0.00000000E+00  0.00000000E+00  0.00000000E+00
  0.00000000E+00  0.00000000E+00  0.00000000E+00
  0.00000000E+00  0.00000000E+00  0.00000000E+00
