crystal structure from VMoWS2 with Hexag
   1.00000000000000     
     8.3199241966373503    4.8319185107457026    0.0000000000000000
    -8.3033329435471082    4.8032462498351487    0.0000000000000000
     0.0000000000000000    0.0000000000000000   30.0000000000000000
   V    Mo   W    S 
     3     3     3    18
Direct
  0.3724639448798322  0.3509605468632431 -0.0026844214898975
  0.3644102534942206  0.6837102632364762 -0.0009516759399235
 -0.0368267866955767  0.6568020958944427  0.0022358423901286
 -0.0380651342119846 -0.0157631932116831  0.0017265766825438
  0.6721888907772312  0.6899281452135494 -0.0001557696607528
  0.6720252910478121  0.0014991418030585 -0.0001527303123232
  0.9657541734780850  0.3078255392664050  0.0011646572943176
  0.3685925360441505  0.0162859743832636 -0.0012810412461809
  0.6645181576495228  0.3128488093472622  0.0000194084304641
  0.1154996820982359  0.2232431322756093  0.9544060209154006
  0.2236552688271915  0.1154321416377071  0.0429308695444174
  0.1103263799106863  0.5584912657686106  0.9586631187970260
  0.2252834702695750  0.4424111246925482  0.0423415019468499
  0.1103268401658828  0.8865316091315220  0.9565076231519593
  0.2202675522883352  0.7753486664703314  0.0442486938584389
  0.4493002801610820  0.2253983834502423  0.9444580925604460
  0.5603717541601825  0.1104452260110397  0.0560958153551520
  0.4438015632484131  0.5578685215903444  0.9469880335070037
  0.5613795834185330  0.4468235030475938  0.0498441175682211
  0.4429017150086775  0.8833770035673921  0.9455077068910824
  0.5527699869187046  0.7779241834806220  0.0543275756007988
  0.7733508122549412  0.2172957641183566  0.9435862030104837
  0.8845611619449846  0.1085105082795240  0.0574369855614245
  0.7736024431481554  0.5540655939109703  0.9497867796005642
  0.8884114123082096  0.4459021523109551  0.0535860774438394
  0.7729613594161865  0.8895289442735230  0.9434409891053561
  0.8843818614257093  0.7755194066647004  0.0559228486331565
 
  0.00000000E+00  0.00000000E+00  0.00000000E+00
  0.00000000E+00  0.00000000E+00  0.00000000E+00
  0.00000000E+00  0.00000000E+00  0.00000000E+00
  0.00000000E+00  0.00000000E+00  0.00000000E+00
  0.00000000E+00  0.00000000E+00  0.00000000E+00
  0.00000000E+00  0.00000000E+00  0.00000000E+00
  0.00000000E+00  0.00000000E+00  0.00000000E+00
  0.00000000E+00  0.00000000E+00  0.00000000E+00
  0.00000000E+00  0.00000000E+00  0.00000000E+00
  0.00000000E+00  0.00000000E+00  0.00000000E+00
  0.00000000E+00  0.00000000E+00  0.00000000E+00
  0.00000000E+00  0.00000000E+00  0.00000000E+00
  0.00000000E+00  0.00000000E+00  0.00000000E+00
  0.00000000E+00  0.00000000E+00  0.00000000E+00
  0.00000000E+00  0.00000000E+00  0.00000000E+00
  0.00000000E+00  0.00000000E+00  0.00000000E+00
  0.00000000E+00  0.00000000E+00  0.00000000E+00
  0.00000000E+00  0.00000000E+00  0.00000000E+00
  0.00000000E+00  0.00000000E+00  0.00000000E+00
  0.00000000E+00  0.00000000E+00  0.00000000E+00
  0.00000000E+00  0.00000000E+00  0.00000000E+00
  0.00000000E+00  0.00000000E+00  0.00000000E+00
  0.00000000E+00  0.00000000E+00  0.00000000E+00
  0.00000000E+00  0.00000000E+00  0.00000000E+00
  0.00000000E+00  0.00000000E+00  0.00000000E+00
  0.00000000E+00  0.00000000E+00  0.00000000E+00
  0.00000000E+00  0.00000000E+00  0.00000000E+00
