crystal structure from VMoWS2 with Hexag
   1.00000000000000     
     8.3115231629739768    4.7804734944275120    0.0000000000000000
    -8.3265433624603666    4.8065902633618167    0.0000000000000000
     0.0000000000000000    0.0000000000000000   30.0000000000000000
   V    Mo   W    S 
     3     3     3    18
Direct
  0.6634988454000604  0.6798360003930327 -0.0007298992462590
  0.6635732697945006  0.3189903851010577  0.0010151020275843
  0.3339818649406159 -0.0062198668619948 -0.0000635607632721
  0.6744222433481065 -0.0040708660671937 -0.0000232517896509
 -0.0006722994841994  0.0138398102649743 -0.0000834136597321
  0.3050771344492872  0.3177100747815668  0.0002960069113734
  0.9898142859249640  0.2984632257006986 -0.0002951178702893
  0.0112987055179433  0.6924977802872614 -0.0002742243708407
  0.3525423465067806  0.6877304551487057 -0.0000637251661970
  0.1062856424453228  0.2186519176736511  0.9428251373766212
  0.2232594577207402  0.1067338725107937  0.0514236470331362
  0.1091054370231430  0.5491912014061278  0.9537756643275443
  0.2157149162229461  0.4464432547790564  0.0508589360072664
  0.1206246868183673  0.8983600172804340  0.9476316972776212
  0.2304699932645788  0.7874708028833717  0.0529087236612128
  0.4465570677593849  0.2210294667081313  0.9513911152115280
  0.5539814966277931  0.1118419943296998  0.0503954449040522
  0.4477833418406422  0.5583431666043929  0.9498102674191499
  0.5548053508922683  0.4448192205247424  0.0456766231739882
  0.4470435804594424  0.8956753906248390  0.9476574879321871
  0.5595269854897253  0.7739415411675493  0.0538045301364189
  0.7752759397764366  0.2221601758203722  0.9476737426096694
  0.8863792467263527  0.1057798311092102  0.0568470408515611
  0.7759184216164524  0.5564872996202268  0.9528827030944875
  0.8909709460791565  0.4438243389135890  0.0470066698522928
  0.7769079826108097  0.8833407466630785  0.9465203127297754
  0.8840675636653620  0.7753432161101829  0.0511322395287467
 
  0.00000000E+00  0.00000000E+00  0.00000000E+00
  0.00000000E+00  0.00000000E+00  0.00000000E+00
  0.00000000E+00  0.00000000E+00  0.00000000E+00
  0.00000000E+00  0.00000000E+00  0.00000000E+00
  0.00000000E+00  0.00000000E+00  0.00000000E+00
  0.00000000E+00  0.00000000E+00  0.00000000E+00
  0.00000000E+00  0.00000000E+00  0.00000000E+00
  0.00000000E+00  0.00000000E+00  0.00000000E+00
  0.00000000E+00  0.00000000E+00  0.00000000E+00
  0.00000000E+00  0.00000000E+00  0.00000000E+00
  0.00000000E+00  0.00000000E+00  0.00000000E+00
  0.00000000E+00  0.00000000E+00  0.00000000E+00
  0.00000000E+00  0.00000000E+00  0.00000000E+00
  0.00000000E+00  0.00000000E+00  0.00000000E+00
  0.00000000E+00  0.00000000E+00  0.00000000E+00
  0.00000000E+00  0.00000000E+00  0.00000000E+00
  0.00000000E+00  0.00000000E+00  0.00000000E+00
  0.00000000E+00  0.00000000E+00  0.00000000E+00
  0.00000000E+00  0.00000000E+00  0.00000000E+00
  0.00000000E+00  0.00000000E+00  0.00000000E+00
  0.00000000E+00  0.00000000E+00  0.00000000E+00
  0.00000000E+00  0.00000000E+00  0.00000000E+00
  0.00000000E+00  0.00000000E+00  0.00000000E+00
  0.00000000E+00  0.00000000E+00  0.00000000E+00
  0.00000000E+00  0.00000000E+00  0.00000000E+00
  0.00000000E+00  0.00000000E+00  0.00000000E+00
  0.00000000E+00  0.00000000E+00  0.00000000E+00
