crystal structure from VMoWS2 with Hexag
   1.00000000000000     
     8.3191505033728674    4.8300141691298135    0.0000000000000000
    -8.2927819911461693    4.7844062292905090    0.0000000000000000
     0.0000000000000000    0.0000000000000000   30.0000000000000000
   V    Mo   W    S 
     3     3     3    18
Direct
  0.0349472860395578  0.6788315300085114 -0.0020615185231966
  0.6331786388401009 -0.0172338233298841  0.0021326469132158
  0.0359107161448915  0.0216913997788422 -0.0018075763269612
  1.0382588539712281  0.3545002390914300 -0.0018648648624079
  0.3313210196006647  0.6634674522367927 -0.0002302530421392
  0.3391609883498624 -0.0149896796424357 -0.0003691908391651
  0.3354010635264353  0.3530676039524301 -0.0000204634506237
  0.6254063395670314  0.3107166060828966  0.0029205235041749
  0.6324529609153604  0.6518477432111488  0.0012271258352536
  0.1157256865643402  0.2228906716468237  0.9447513254061404
  0.2264077375931440  0.1136639628762905  0.0501918810897565
  0.1136765384827766  0.5618799419625732  0.9440499886575541
  0.2277509033667700  0.4498803363680229  0.0561030867348255
  0.1093218271279663  0.8851241835654216  0.9470106615086353
  0.2179703816394500  0.7734135292036611  0.0536919979271002
  0.4323138028180855  0.2155343733075745  0.9476457364804091
  0.5520744292624115  0.1019562888781115  0.0561870010465522
  0.4400436574952267  0.5559976375199658  0.9433247751805396
  0.5500044279045750  0.4441601227504764  0.0568241856135855
  0.4497638189621039  0.8884174858875074  0.9456134942403208
  0.5558431670221126  0.7820816755307414  0.0551008869144612
  0.7759253252643185  0.2200486147154115  0.9573069484317182
  0.8881065667064315  0.1085494601199338  0.0428887700078717
  0.7787288838347339  0.5532995205408547  0.9567649872873752
  0.8872760099077445  0.4462651717725616  0.0443562654163117
  0.7796367605433484  0.8933584033821301  0.9563137418385025
  0.8916066619863086  0.7797940020597757  0.0419477362101829
 
  0.00000000E+00  0.00000000E+00  0.00000000E+00
  0.00000000E+00  0.00000000E+00  0.00000000E+00
  0.00000000E+00  0.00000000E+00  0.00000000E+00
  0.00000000E+00  0.00000000E+00  0.00000000E+00
  0.00000000E+00  0.00000000E+00  0.00000000E+00
  0.00000000E+00  0.00000000E+00  0.00000000E+00
  0.00000000E+00  0.00000000E+00  0.00000000E+00
  0.00000000E+00  0.00000000E+00  0.00000000E+00
  0.00000000E+00  0.00000000E+00  0.00000000E+00
  0.00000000E+00  0.00000000E+00  0.00000000E+00
  0.00000000E+00  0.00000000E+00  0.00000000E+00
  0.00000000E+00  0.00000000E+00  0.00000000E+00
  0.00000000E+00  0.00000000E+00  0.00000000E+00
  0.00000000E+00  0.00000000E+00  0.00000000E+00
  0.00000000E+00  0.00000000E+00  0.00000000E+00
  0.00000000E+00  0.00000000E+00  0.00000000E+00
  0.00000000E+00  0.00000000E+00  0.00000000E+00
  0.00000000E+00  0.00000000E+00  0.00000000E+00
  0.00000000E+00  0.00000000E+00  0.00000000E+00
  0.00000000E+00  0.00000000E+00  0.00000000E+00
  0.00000000E+00  0.00000000E+00  0.00000000E+00
  0.00000000E+00  0.00000000E+00  0.00000000E+00
  0.00000000E+00  0.00000000E+00  0.00000000E+00
  0.00000000E+00  0.00000000E+00  0.00000000E+00
  0.00000000E+00  0.00000000E+00  0.00000000E+00
  0.00000000E+00  0.00000000E+00  0.00000000E+00
  0.00000000E+00  0.00000000E+00  0.00000000E+00
