crystal structure from VMoWS2 with Hexag
   1.00000000000000     
     8.3535437933420482    4.8622084095968319    0.0000000000000000
    -8.3305080506270919    4.8224690793601823    0.0000000000000000
     0.0000000000000000    0.0000000000000000   30.0000000000000000
   V    Mo   W    S 
     3     3     3    18
Direct
  0.3024633442612070  0.3173676482573677  0.0015348035054100
  0.6806515523452065  0.6963472243088132  0.0008714170851811
  0.3315668117173057  0.6631778097687691 -0.0025282799933058
 -0.0020493771005010 -0.0078588526395181  0.0000272113106908
 -0.0007859356806338  0.6886115906277692  0.0002969265042241
  0.7015510808335279  0.0197069123816608 -0.0008329868426889
  0.9861005194740450  0.3071109784860032  0.0003976936009437
  0.2933697159889237 -0.0171008311831377  0.0012808493659830
  0.7036878590840033  0.3346015690611701 -0.0015626154370603
  0.1145400284433657  0.2217848950037437  0.9467665732819545
  0.2182062385851176  0.1126590546067240  0.0546139859413731
  0.1096643905401852  0.5541513960690193  0.9534585902763589
  0.2250042360830157  0.4464302567402236  0.0501553458919977
  0.1052273520084916  0.8878772609192220  0.9436165325194760
  0.2195873537674525  0.7732850946396919  0.0524544882446444
  0.4446282469149300  0.2228887313690228  0.9555186652117132
  0.5502685643504093  0.1080306454837651  0.0455478211876941
  0.4439119737705693  0.5540297214754616  0.9542519324230693
  0.5566647149027613  0.4442567033759202  0.0405254552191576
  0.4456054185038706  0.8934220473583284  0.9547457762075724
  0.5563320746442992  0.7811529183353942  0.0486899421152367
  0.7886818475193990  0.2221438629024811  0.9418789353555289
  0.8942498389548278  0.1083194284774467  0.0564194373297825
  0.7730067643302627  0.5583320712769815  0.9496916328239542
  0.9003052878239918  0.4476088196384572  0.0523031789447488
  0.7762195268622009  0.8845241720696028  0.9455366607747793
  0.8795550245087481  0.7753533246671854  0.0543399263515666
 
  0.00000000E+00  0.00000000E+00  0.00000000E+00
  0.00000000E+00  0.00000000E+00  0.00000000E+00
  0.00000000E+00  0.00000000E+00  0.00000000E+00
  0.00000000E+00  0.00000000E+00  0.00000000E+00
  0.00000000E+00  0.00000000E+00  0.00000000E+00
  0.00000000E+00  0.00000000E+00  0.00000000E+00
  0.00000000E+00  0.00000000E+00  0.00000000E+00
  0.00000000E+00  0.00000000E+00  0.00000000E+00
  0.00000000E+00  0.00000000E+00  0.00000000E+00
  0.00000000E+00  0.00000000E+00  0.00000000E+00
  0.00000000E+00  0.00000000E+00  0.00000000E+00
  0.00000000E+00  0.00000000E+00  0.00000000E+00
  0.00000000E+00  0.00000000E+00  0.00000000E+00
  0.00000000E+00  0.00000000E+00  0.00000000E+00
  0.00000000E+00  0.00000000E+00  0.00000000E+00
  0.00000000E+00  0.00000000E+00  0.00000000E+00
  0.00000000E+00  0.00000000E+00  0.00000000E+00
  0.00000000E+00  0.00000000E+00  0.00000000E+00
  0.00000000E+00  0.00000000E+00  0.00000000E+00
  0.00000000E+00  0.00000000E+00  0.00000000E+00
  0.00000000E+00  0.00000000E+00  0.00000000E+00
  0.00000000E+00  0.00000000E+00  0.00000000E+00
  0.00000000E+00  0.00000000E+00  0.00000000E+00
  0.00000000E+00  0.00000000E+00  0.00000000E+00
  0.00000000E+00  0.00000000E+00  0.00000000E+00
  0.00000000E+00  0.00000000E+00  0.00000000E+00
  0.00000000E+00  0.00000000E+00  0.00000000E+00
