crystal structure from VMoWS2 with Hexag
   1.00000000000000     
     8.3590164048566233    4.7934127813663530    0.0000000000000000
    -8.3734195809621585    4.8183479974264669    0.0000000000000000
     0.0000000000000000    0.0000000000000000   30.0000000000000000
   V    Mo   W    S 
     3     3     3    18
Direct
  0.6458694880834313  0.6850490574745994 -0.0024766531799195
 -0.0135554299685119  0.0162071441685090 -0.0005476593595186
  0.3683512223183336  0.0171714133474435  0.0003258817114781
  0.6837510859041482  0.0247076953099161  0.0002668426365263
  0.9977170712956435  0.3327186823203583  0.0002134544118951
  0.6881671629593858  0.3183050307041216  0.0009791077259285
  0.0020528031136020  0.6346961905576832  0.0006191794501587
  0.3158926160081463  0.3461595616004559 -0.0002036293257009
  0.3139268079623752  0.6367120604109223  0.0003964984093670
  0.1089669700900681  0.2155771121560162  0.9461481371891197
  0.2190957878885103  0.1086709302911543  0.0464202777944579
  0.1106678457021065  0.5484876160062830  0.9438602801218867
  0.2151268149819944  0.4392905555409914  0.0569101613962316
  0.1149837878800584  0.8910897531184151  0.9592606820044473
  0.2235490592785038  0.7797132318562158  0.0501556907701387
  0.4487270836627767  0.2268793901181100  0.9529679721332009
  0.5573932655128765  0.1114796255753008  0.0557454118667798
  0.4428254501839936  0.5568120141429808  0.9449326751575010
  0.5605196148041025  0.4498382928862540  0.0428718169786074
  0.4428198156827948  0.8861127995290693  0.9526601099342936
  0.5496189005689115  0.7793032535782866  0.0497655281414631
  0.7846093385574199  0.2225124015042120  0.9435852029087631
  0.8904189813285057  0.1085662175553645  0.0547646126402621
  0.7746751362792912  0.5573826818130344  0.9532153908359855
  0.8900379035665441  0.4383666372799136  0.0572792054406139
  0.7793160791339634  0.8922020885798685  0.9475186173153242
  0.8826897906579899  0.7742030160520925  0.0423651040906996
 
  0.00000000E+00  0.00000000E+00  0.00000000E+00
  0.00000000E+00  0.00000000E+00  0.00000000E+00
  0.00000000E+00  0.00000000E+00  0.00000000E+00
  0.00000000E+00  0.00000000E+00  0.00000000E+00
  0.00000000E+00  0.00000000E+00  0.00000000E+00
  0.00000000E+00  0.00000000E+00  0.00000000E+00
  0.00000000E+00  0.00000000E+00  0.00000000E+00
  0.00000000E+00  0.00000000E+00  0.00000000E+00
  0.00000000E+00  0.00000000E+00  0.00000000E+00
  0.00000000E+00  0.00000000E+00  0.00000000E+00
  0.00000000E+00  0.00000000E+00  0.00000000E+00
  0.00000000E+00  0.00000000E+00  0.00000000E+00
  0.00000000E+00  0.00000000E+00  0.00000000E+00
  0.00000000E+00  0.00000000E+00  0.00000000E+00
  0.00000000E+00  0.00000000E+00  0.00000000E+00
  0.00000000E+00  0.00000000E+00  0.00000000E+00
  0.00000000E+00  0.00000000E+00  0.00000000E+00
  0.00000000E+00  0.00000000E+00  0.00000000E+00
  0.00000000E+00  0.00000000E+00  0.00000000E+00
  0.00000000E+00  0.00000000E+00  0.00000000E+00
  0.00000000E+00  0.00000000E+00  0.00000000E+00
  0.00000000E+00  0.00000000E+00  0.00000000E+00
  0.00000000E+00  0.00000000E+00  0.00000000E+00
  0.00000000E+00  0.00000000E+00  0.00000000E+00
  0.00000000E+00  0.00000000E+00  0.00000000E+00
  0.00000000E+00  0.00000000E+00  0.00000000E+00
  0.00000000E+00  0.00000000E+00  0.00000000E+00
