crystal structure from VMoWS2 with Hexag
   1.00000000000000     
     8.3343131032249040    4.8435993391125907    0.0000000000000000
    -8.3406129056818035    4.8548070638658469    0.0000000000000000
     0.0000000000000000    0.0000000000000000   30.0000000000000000
   V    Mo   W    S 
     3     3     3    18
Direct
  0.9757072888544289  0.3319255461263119 -0.0012647611001876
 -0.0287346890842018 -0.0148047616847033  0.0006982925063969
  0.6507293144151121 -0.0262535469651109 -0.0004161402273139
  0.6847774361910485  0.3711399027876727  0.0008534941014700
  0.6637071319086324  0.6591214116980364 -0.0001479494385440
  0.3638085509661121  0.6801845790221839  0.0004078350665048
 -0.0236073152239618  0.6574959334059992 -0.0004319958892708
  0.3252011253609718 -0.0406130849393920 -0.0015564093729154
  0.3659960252105473  0.3705978159999483  0.0015181818209247
  0.1120761800560932  0.2251617304631620  0.9573774739813083
  0.2235787870233667  0.1100399038119391  0.0418886450366340
  0.1122058146436689  0.5536050143823532  0.9536132786837773
  0.2203088032278791  0.4418636020100676  0.0498837880834234
  0.1057702959696687  0.8885675098836249  0.9491847664917039
  0.2178049617021258  0.7631371802654739  0.0519543996666147
  0.4440244080179426  0.2186265474924374  0.9538148454329458
  0.5570652166872361  0.1123881969466738  0.0440911210480262
  0.4508471399741533  0.5597454901330244  0.9439629711865847
  0.5640879306008867  0.4528686167135147  0.0574888187288001
  0.4526948947839978  0.8856381579734521  0.9439970703020238
  0.5663302557742660  0.7833709834199514  0.0545317156533524
  0.7699029012676052  0.2196261325624232  0.9520935294454974
  0.8798498221034378  0.1076015382800367  0.0482544472928467
  0.7792498016825065  0.5636632492772073  0.9432209629999905
  0.8933535690076028  0.4456523325561428  0.0540661498635561
  0.7790598632268066  0.8952373970502191  0.9478057844013131
  0.8924189390890410  0.7826270748049182  0.0531095834344928
 
  0.00000000E+00  0.00000000E+00  0.00000000E+00
  0.00000000E+00  0.00000000E+00  0.00000000E+00
  0.00000000E+00  0.00000000E+00  0.00000000E+00
  0.00000000E+00  0.00000000E+00  0.00000000E+00
  0.00000000E+00  0.00000000E+00  0.00000000E+00
  0.00000000E+00  0.00000000E+00  0.00000000E+00
  0.00000000E+00  0.00000000E+00  0.00000000E+00
  0.00000000E+00  0.00000000E+00  0.00000000E+00
  0.00000000E+00  0.00000000E+00  0.00000000E+00
  0.00000000E+00  0.00000000E+00  0.00000000E+00
  0.00000000E+00  0.00000000E+00  0.00000000E+00
  0.00000000E+00  0.00000000E+00  0.00000000E+00
  0.00000000E+00  0.00000000E+00  0.00000000E+00
  0.00000000E+00  0.00000000E+00  0.00000000E+00
  0.00000000E+00  0.00000000E+00  0.00000000E+00
  0.00000000E+00  0.00000000E+00  0.00000000E+00
  0.00000000E+00  0.00000000E+00  0.00000000E+00
  0.00000000E+00  0.00000000E+00  0.00000000E+00
  0.00000000E+00  0.00000000E+00  0.00000000E+00
  0.00000000E+00  0.00000000E+00  0.00000000E+00
  0.00000000E+00  0.00000000E+00  0.00000000E+00
  0.00000000E+00  0.00000000E+00  0.00000000E+00
  0.00000000E+00  0.00000000E+00  0.00000000E+00
  0.00000000E+00  0.00000000E+00  0.00000000E+00
  0.00000000E+00  0.00000000E+00  0.00000000E+00
  0.00000000E+00  0.00000000E+00  0.00000000E+00
  0.00000000E+00  0.00000000E+00  0.00000000E+00
