crystal structure from VMoWS2 with Hexag
   1.00000000000000     
     8.3450166451765888    4.7911769505276176    0.0000000000000000
    -8.3405155000597713    4.7833830463737064    0.0000000000000000
     0.0000000000000000    0.0000000000000000   30.0000000000000000
   V    Mo   W    S 
     3     3     3    18
Direct
  0.6436810212055496  0.3452722680083062 -0.0018569525133069
 -0.0130774049327643  0.6891800285905874 -0.0014723962581076
  0.3497042323694630  0.6498176203328713  0.0019231112336912
  0.6451384733793237  0.6520263804315202 -0.0004160844887009
  0.3159743392524615  0.0207933382288145 -0.0016940365370238
  0.3322081608143143  0.3300154642720429 -0.0001705287202877
  0.0182009771769855  0.0196223957744609  0.0000178328620987
  1.0203535388019944  0.3194823886529272  0.0010352443958303
  0.6835274859192936 -0.0238243433632689  0.0026103917606205
  0.1163281772651794  0.2223389215043755  0.9432911431129256
  0.2220151850531192  0.1167261467383334  0.0562410311857548
  0.1139651131115471  0.5601823934994052  0.9560576780606715
  0.2263924890725812  0.4489992627860477  0.0549748425869807
  0.1071708170173167  0.8893258720722957  0.9448588445798312
  0.2205995405185974  0.7752408027980230  0.0431520455407341
  0.4482486293638057  0.2281658545991893  0.9442118983510627
  0.5587524265189703  0.1126831753177380  0.0444578592779553
  0.4384714442031498  0.5545614219672024  0.9455276505863559
  0.5554782748937341  0.4406106789551497  0.0537920914711166
  0.4433614427898925  0.8864478802330589  0.9569711871929438
  0.5490856253966925  0.7686080583007592  0.0561305844443044
  0.7745078787802591  0.2201617898111057  0.9568793785184049
  0.8933192774087274  0.1107012565194249  0.0563463565289607
  0.7760143782362019  0.5519127702219166  0.9473726010877093
  0.8885700101943816  0.4465334597703133  0.0419454951713055
  0.7832774046966419  0.8819783930528560  0.9475839974358108
  0.8869455149295541  0.7806507744021115  0.0502286323323479
 
  0.00000000E+00  0.00000000E+00  0.00000000E+00
  0.00000000E+00  0.00000000E+00  0.00000000E+00
  0.00000000E+00  0.00000000E+00  0.00000000E+00
  0.00000000E+00  0.00000000E+00  0.00000000E+00
  0.00000000E+00  0.00000000E+00  0.00000000E+00
  0.00000000E+00  0.00000000E+00  0.00000000E+00
  0.00000000E+00  0.00000000E+00  0.00000000E+00
  0.00000000E+00  0.00000000E+00  0.00000000E+00
  0.00000000E+00  0.00000000E+00  0.00000000E+00
  0.00000000E+00  0.00000000E+00  0.00000000E+00
  0.00000000E+00  0.00000000E+00  0.00000000E+00
  0.00000000E+00  0.00000000E+00  0.00000000E+00
  0.00000000E+00  0.00000000E+00  0.00000000E+00
  0.00000000E+00  0.00000000E+00  0.00000000E+00
  0.00000000E+00  0.00000000E+00  0.00000000E+00
  0.00000000E+00  0.00000000E+00  0.00000000E+00
  0.00000000E+00  0.00000000E+00  0.00000000E+00
  0.00000000E+00  0.00000000E+00  0.00000000E+00
  0.00000000E+00  0.00000000E+00  0.00000000E+00
  0.00000000E+00  0.00000000E+00  0.00000000E+00
  0.00000000E+00  0.00000000E+00  0.00000000E+00
  0.00000000E+00  0.00000000E+00  0.00000000E+00
  0.00000000E+00  0.00000000E+00  0.00000000E+00
  0.00000000E+00  0.00000000E+00  0.00000000E+00
  0.00000000E+00  0.00000000E+00  0.00000000E+00
  0.00000000E+00  0.00000000E+00  0.00000000E+00
  0.00000000E+00  0.00000000E+00  0.00000000E+00
