crystal structure from VMoWS2 with Hexag
   1.00000000000000     
     8.3668240521266366    4.8012851189254047    0.0000000000000000
    -8.3641813176514930    4.7967765308828669    0.0000000000000000
     0.0000000000000000    0.0000000000000000   30.0000000000000000
   V    Mo   W    S 
     3     3     3    18
Direct
  0.0230171302771399 -0.0141249096778628  0.0005849292452349
  0.3033777923909619  0.6648936162022562 -0.0009938054709930
  0.3331698911385737  0.3026248502134216  0.0003576020695444
  0.3321894387684080 -0.0042417223120601 -0.0002201229648838
  0.0023809403569420  0.6579156368918568  0.0005815778974939
  0.9811584291050234  0.3495348027578891 -0.0017431435941612
  0.6650306552185167  0.0221739440788206 -0.0007910560467055
  0.6757974463427410  0.3165603521750150  0.0012478672651752
  0.6846059686975392  0.7029581411054330  0.0005933926561348
  0.1118023842938322  0.2191972443995907  0.9549641022400366
  0.2219678425112220  0.1053972042458910  0.0536172668190854
  0.1118281795379351  0.5591553267282342  0.9443548521956454
  0.2216117208438457  0.4436892021654380  0.0453103179388983
  0.1118386886366755  0.8850978315916097  0.9470842017300064
  0.2199504010564931  0.7707813777607186  0.0536585352748897
  0.4463297489772360  0.2199607700292069  0.9483160290010016
  0.5523911334341182  0.1093693169608996  0.0553887106334511
  0.4386850137003069  0.5512824462697037  0.9567269120042695
  0.5561996616113905  0.4473213128521565  0.0464987377918466
  0.4443632746162874  0.8806462961536583  0.9480400709845728
  0.5451307381301752  0.7812694233805019  0.0485748267725022
  0.7760141099302369  0.2256889636420776  0.9422301744573565
  0.8970732059031691  0.1118924193450906  0.0451672106357530
  0.7677651842133328  0.5532632208520252  0.9521295088706632
  0.8831468048710246  0.4452853614002233  0.0560894868884558
  0.7964488377366320  0.9066345452276726  0.9489773097795964
  0.8949398311372423  0.7839874790381178  0.0532544041251009
 
  0.00000000E+00  0.00000000E+00  0.00000000E+00
  0.00000000E+00  0.00000000E+00  0.00000000E+00
  0.00000000E+00  0.00000000E+00  0.00000000E+00
  0.00000000E+00  0.00000000E+00  0.00000000E+00
  0.00000000E+00  0.00000000E+00  0.00000000E+00
  0.00000000E+00  0.00000000E+00  0.00000000E+00
  0.00000000E+00  0.00000000E+00  0.00000000E+00
  0.00000000E+00  0.00000000E+00  0.00000000E+00
  0.00000000E+00  0.00000000E+00  0.00000000E+00
  0.00000000E+00  0.00000000E+00  0.00000000E+00
  0.00000000E+00  0.00000000E+00  0.00000000E+00
  0.00000000E+00  0.00000000E+00  0.00000000E+00
  0.00000000E+00  0.00000000E+00  0.00000000E+00
  0.00000000E+00  0.00000000E+00  0.00000000E+00
  0.00000000E+00  0.00000000E+00  0.00000000E+00
  0.00000000E+00  0.00000000E+00  0.00000000E+00
  0.00000000E+00  0.00000000E+00  0.00000000E+00
  0.00000000E+00  0.00000000E+00  0.00000000E+00
  0.00000000E+00  0.00000000E+00  0.00000000E+00
  0.00000000E+00  0.00000000E+00  0.00000000E+00
  0.00000000E+00  0.00000000E+00  0.00000000E+00
  0.00000000E+00  0.00000000E+00  0.00000000E+00
  0.00000000E+00  0.00000000E+00  0.00000000E+00
  0.00000000E+00  0.00000000E+00  0.00000000E+00
  0.00000000E+00  0.00000000E+00  0.00000000E+00
  0.00000000E+00  0.00000000E+00  0.00000000E+00
  0.00000000E+00  0.00000000E+00  0.00000000E+00
