crystal structure from VMoWS2 with Hexag
   1.00000000000000     
     8.3675522586933155    4.8420950380575078    0.0000000000000000
    -8.3698043829150901    4.8458975209560995    0.0000000000000000
     0.0000000000000000    0.0000000000000000   30.0000000000000000
   V    Mo   W    S 
     3     3     3    18
Direct
  0.6480587568181798  0.2963957025110346 -0.0006006439128294
 -0.0343203932087457 -0.0182152077009692  0.0006791227471555
  0.9758070014555384  0.3085708439685356 -0.0003455448123729
  0.3468952878230324 -0.0200543236785884  0.0002455414885177
  0.3526492275832596  0.6875854191451033 -0.0000202025985446
  0.6588206562655030 -0.0064071018694326 -0.0000054647518735
  0.0393550058595495  0.6834165093489110 -0.0016076190160276
  0.3500627176561682  0.3729530923989557  0.0017779582113880
  0.6480065676212770  0.6808935461390705 -0.0000420759125316
  0.1069866908101692  0.2182727627754988  0.9537726200955633
  0.2203877265661453  0.1135223369844610  0.0404765648980013
  0.1146452217316449  0.5475721901356382  0.9503279960534610
  0.2128037570989019  0.4476077529636939  0.0494040697662248
  0.1144777664446128  0.8959436541898683  0.9501317843718846
  0.2281637769178941  0.7784737917381770  0.0562519214275966
  0.4432592563507028  0.2231185545165758  0.9516889402820977
  0.5568685575921483  0.1114579014235628  0.0545225201731815
  0.4469709293301208  0.5634880452086638  0.9440314597866084
  0.5640240699584499  0.4487902395849482  0.0498072088304641
  0.4501678279356541  0.8905585420559405  0.9431625195530362
  0.5569478534309750  0.7832759469151267  0.0568887595170894
  0.7748768778412617  0.2225800942458743  0.9483099777282843
  0.8901878885909658  0.1090694131506428  0.0511820180326189
  0.7786862309551992  0.5531481060484892  0.9597021902163940
  0.8842360202549477  0.4386539968009897  0.0458526326840073
  0.7793331247264152  0.8905815403611271  0.9457625449005773
  0.8898560490270090  0.7769611041156742  0.0486430994400202
 
  0.00000000E+00  0.00000000E+00  0.00000000E+00
  0.00000000E+00  0.00000000E+00  0.00000000E+00
  0.00000000E+00  0.00000000E+00  0.00000000E+00
  0.00000000E+00  0.00000000E+00  0.00000000E+00
  0.00000000E+00  0.00000000E+00  0.00000000E+00
  0.00000000E+00  0.00000000E+00  0.00000000E+00
  0.00000000E+00  0.00000000E+00  0.00000000E+00
  0.00000000E+00  0.00000000E+00  0.00000000E+00
  0.00000000E+00  0.00000000E+00  0.00000000E+00
  0.00000000E+00  0.00000000E+00  0.00000000E+00
  0.00000000E+00  0.00000000E+00  0.00000000E+00
  0.00000000E+00  0.00000000E+00  0.00000000E+00
  0.00000000E+00  0.00000000E+00  0.00000000E+00
  0.00000000E+00  0.00000000E+00  0.00000000E+00
  0.00000000E+00  0.00000000E+00  0.00000000E+00
  0.00000000E+00  0.00000000E+00  0.00000000E+00
  0.00000000E+00  0.00000000E+00  0.00000000E+00
  0.00000000E+00  0.00000000E+00  0.00000000E+00
  0.00000000E+00  0.00000000E+00  0.00000000E+00
  0.00000000E+00  0.00000000E+00  0.00000000E+00
  0.00000000E+00  0.00000000E+00  0.00000000E+00
  0.00000000E+00  0.00000000E+00  0.00000000E+00
  0.00000000E+00  0.00000000E+00  0.00000000E+00
  0.00000000E+00  0.00000000E+00  0.00000000E+00
  0.00000000E+00  0.00000000E+00  0.00000000E+00
  0.00000000E+00  0.00000000E+00  0.00000000E+00
  0.00000000E+00  0.00000000E+00  0.00000000E+00
