crystal structure from VMoWS2 with Hexag
   1.00000000000000     
     8.3582813505852531    4.8465657286807611    0.0000000000000000
    -8.3568061429920757    4.8437375026958049    0.0000000000000000
     0.0000000000000000    0.0000000000000000   30.0000000000000000
   V    Mo   W    S 
     3     3     3    18
Direct
  0.3500581452407828  0.0282969872811008  0.0001757742422310
  0.0233404250643357  0.0363263082957917 -0.0003755049794552
  0.3535976157591217  0.3456536788192309 -0.0006191113627424
  0.6470366113368677  0.6308319669906919  0.0000657969190524
  0.6738380481715144  0.3339389222094523 -0.0002045749829831
  0.9615870422122096  0.3160883788634068  0.0006871191656169
 -0.0393528172921542  0.6325757159838720  0.0016223649229472
  0.3724773886565948  0.6740506626659268 -0.0017097611101176
  0.6743961062991851  0.0231414928962815 -0.0003589452957766
  0.1140534746017679  0.2328518302732599  0.9505045266150846
  0.2282987867114534  0.1204746019537789  0.0499283240089277
  0.1130484611715722  0.5568099634593177  0.9536200958120695
  0.2194090150464787  0.4441009704556621  0.0440645160828444
  0.1091206092473035  0.8886578306513868  0.9574089835902873
  0.2222042543882039  0.7769269658623037  0.0416126692937485
  0.4381047926018813  0.2216357016653568  0.9477639113316431
  0.5499664065028066  0.1057078528667331  0.0533386764199448
  0.4439536236618894  0.5468096524747937  0.9436895122379670
  0.5464894727592092  0.4301462965076690  0.0543004152542300
  0.4448528228673634  0.8949459967531552  0.9491417924548343
  0.5686159504371286  0.7799497774417571  0.0518500090754158
  0.7691166577882159  0.2200796942754263  0.9431327769679843
  0.8895851844549036  0.1073981236530370  0.0533064172263290
  0.7715562934808409  0.5476797800297976  0.9440429747371359
  0.8794233199739793  0.4350896398227639  0.0574493752675054
  0.7840060073746020  0.8877494634846451  0.9571533892562967
  0.8894307549189170  0.7802961978409798  0.0484083760489668
 
  0.00000000E+00  0.00000000E+00  0.00000000E+00
  0.00000000E+00  0.00000000E+00  0.00000000E+00
  0.00000000E+00  0.00000000E+00  0.00000000E+00
  0.00000000E+00  0.00000000E+00  0.00000000E+00
  0.00000000E+00  0.00000000E+00  0.00000000E+00
  0.00000000E+00  0.00000000E+00  0.00000000E+00
  0.00000000E+00  0.00000000E+00  0.00000000E+00
  0.00000000E+00  0.00000000E+00  0.00000000E+00
  0.00000000E+00  0.00000000E+00  0.00000000E+00
  0.00000000E+00  0.00000000E+00  0.00000000E+00
  0.00000000E+00  0.00000000E+00  0.00000000E+00
  0.00000000E+00  0.00000000E+00  0.00000000E+00
  0.00000000E+00  0.00000000E+00  0.00000000E+00
  0.00000000E+00  0.00000000E+00  0.00000000E+00
  0.00000000E+00  0.00000000E+00  0.00000000E+00
  0.00000000E+00  0.00000000E+00  0.00000000E+00
  0.00000000E+00  0.00000000E+00  0.00000000E+00
  0.00000000E+00  0.00000000E+00  0.00000000E+00
  0.00000000E+00  0.00000000E+00  0.00000000E+00
  0.00000000E+00  0.00000000E+00  0.00000000E+00
  0.00000000E+00  0.00000000E+00  0.00000000E+00
  0.00000000E+00  0.00000000E+00  0.00000000E+00
  0.00000000E+00  0.00000000E+00  0.00000000E+00
  0.00000000E+00  0.00000000E+00  0.00000000E+00
  0.00000000E+00  0.00000000E+00  0.00000000E+00
  0.00000000E+00  0.00000000E+00  0.00000000E+00
  0.00000000E+00  0.00000000E+00  0.00000000E+00
