crystal structure from VMoWS2 with Hexag
   1.00000000000000     
     8.3270873150318003    4.7778364724515452    0.0000000000000000
    -8.3328193295510431    4.7878155751667331    0.0000000000000000
     0.0000000000000000    0.0000000000000000   30.0000000000000000
   V    Mo   W    S 
     3     3     3    18
Direct
  0.0119864357950305 -0.0201134020553354  0.0015358721792842
  0.6827936182317683  0.6453996984861093  0.0025377495632181
  0.9909485285822933  0.3582445086824364 -0.0021856379170914
  0.6706045929100403  0.3391119320557837  0.0000496357488139
  0.0012448155887761  0.6614034290186488  0.0002155893737329
  0.3154005569552912  0.6894097309373949 -0.0024980180178949
  0.3331051872663328 -0.0071107265782868  0.0002673390589909
  0.3561248433667528  0.3181955900137277  0.0021668375872562
  0.6403384883993340  0.0101589692480631 -0.0019971016158454
  0.1108368954282180  0.2218740048529925  0.9573976503106951
  0.2177340272411634  0.1059415809822277  0.0544277145494792
  0.1056927253190111  0.5538922788251176  0.9435802300656554
  0.2219237383184304  0.4448789192149779  0.0438931417277464
  0.1090859395843870  0.8892896708684888  0.9469766276607575
  0.2175048355928624  0.7809108466294453  0.0553311238738854
  0.4483856019246480  0.2196432833416898  0.9458294704507676
  0.5520390973612227  0.1131019334645097  0.0546852607988819
  0.4483900675786406  0.5584091311750846  0.9564950200496588
  0.5635140824643965  0.4475650412781803  0.0563809445857888
  0.4387396656857442  0.8927381191754981  0.9416749332657427
  0.5555970717824570  0.7753208874996573  0.0445594014464522
  0.7834426074273342  0.2261711766865014  0.9458545149655352
  0.8902697903202961  0.1133218932801770  0.0415888303502674
  0.7771987086139019  0.5574435406030983  0.9468444404121039
  0.8925392158324156  0.4425446979373004  0.0537805336859242
  0.7756533028554624  0.8840199027651422  0.9569037454113499
  0.8871200130107706  0.7764478150889443  0.0537040496288382
 
  0.00000000E+00  0.00000000E+00  0.00000000E+00
  0.00000000E+00  0.00000000E+00  0.00000000E+00
  0.00000000E+00  0.00000000E+00  0.00000000E+00
  0.00000000E+00  0.00000000E+00  0.00000000E+00
  0.00000000E+00  0.00000000E+00  0.00000000E+00
  0.00000000E+00  0.00000000E+00  0.00000000E+00
  0.00000000E+00  0.00000000E+00  0.00000000E+00
  0.00000000E+00  0.00000000E+00  0.00000000E+00
  0.00000000E+00  0.00000000E+00  0.00000000E+00
  0.00000000E+00  0.00000000E+00  0.00000000E+00
  0.00000000E+00  0.00000000E+00  0.00000000E+00
  0.00000000E+00  0.00000000E+00  0.00000000E+00
  0.00000000E+00  0.00000000E+00  0.00000000E+00
  0.00000000E+00  0.00000000E+00  0.00000000E+00
  0.00000000E+00  0.00000000E+00  0.00000000E+00
  0.00000000E+00  0.00000000E+00  0.00000000E+00
  0.00000000E+00  0.00000000E+00  0.00000000E+00
  0.00000000E+00  0.00000000E+00  0.00000000E+00
  0.00000000E+00  0.00000000E+00  0.00000000E+00
  0.00000000E+00  0.00000000E+00  0.00000000E+00
  0.00000000E+00  0.00000000E+00  0.00000000E+00
  0.00000000E+00  0.00000000E+00  0.00000000E+00
  0.00000000E+00  0.00000000E+00  0.00000000E+00
  0.00000000E+00  0.00000000E+00  0.00000000E+00
  0.00000000E+00  0.00000000E+00  0.00000000E+00
  0.00000000E+00  0.00000000E+00  0.00000000E+00
  0.00000000E+00  0.00000000E+00  0.00000000E+00
